*SPEF "IEEE 1481-1999"
*DESIGN "logic_tile_routed"
*DATE "canonicalized (see flow/sta_sanitize_names.py)"
*VENDOR "2AM Logic"
*PROGRAM "klt extract"
*VERSION "0.7.0+gd1e9e119331f"
*DESIGN_FLOW "NAME_SCOPE LOCAL" "PIN_CAP NONE"
*DIVIDER /
*DELIMITER :
*BUS_DELIMITER [ ]
*T_UNIT 1 PS
*C_UNIT 1 FF
*R_UNIT 1 OHM
*L_UNIT 1 HENRY

*PORTS
VGND B
VPWR B
cfg\[0\] B
cfg\[100\] B
cfg\[101\] B
cfg\[102\] B
cfg\[103\] B
cfg\[104\] B
cfg\[105\] B
cfg\[106\] B
cfg\[107\] B
cfg\[108\] B
cfg\[109\] B
cfg\[10\] B
cfg\[110\] B
cfg\[111\] B
cfg\[112\] B
cfg\[113\] B
cfg\[114\] B
cfg\[115\] B
cfg\[116\] B
cfg\[117\] B
cfg\[118\] B
cfg\[119\] B
cfg\[11\] B
cfg\[120\] B
cfg\[121\] B
cfg\[122\] B
cfg\[123\] B
cfg\[124\] B
cfg\[125\] B
cfg\[126\] B
cfg\[127\] B
cfg\[128\] B
cfg\[129\] B
cfg\[12\] B
cfg\[130\] B
cfg\[131\] B
cfg\[132\] B
cfg\[133\] B
cfg\[134\] B
cfg\[135\] B
cfg\[136\] B
cfg\[137\] B
cfg\[138\] B
cfg\[139\] B
cfg\[13\] B
cfg\[140\] B
cfg\[141\] B
cfg\[142\] B
cfg\[143\] B
cfg\[144\] B
cfg\[145\] B
cfg\[146\] B
cfg\[147\] B
cfg\[148\] B
cfg\[149\] B
cfg\[14\] B
cfg\[150\] B
cfg\[151\] B
cfg\[152\] B
cfg\[153\] B
cfg\[154\] B
cfg\[155\] B
cfg\[156\] B
cfg\[157\] B
cfg\[15\] B
cfg\[16\] B
cfg\[17\] B
cfg\[18\] B
cfg\[19\] B
cfg\[1\] B
cfg\[20\] B
cfg\[21\] B
cfg\[22\] B
cfg\[23\] B
cfg\[24\] B
cfg\[25\] B
cfg\[26\] B
cfg\[27\] B
cfg\[28\] B
cfg\[29\] B
cfg\[2\] B
cfg\[30\] B
cfg\[31\] B
cfg\[32\] B
cfg\[33\] B
cfg\[34\] B
cfg\[35\] B
cfg\[36\] B
cfg\[37\] B
cfg\[38\] B
cfg\[39\] B
cfg\[3\] B
cfg\[40\] B
cfg\[41\] B
cfg\[42\] B
cfg\[43\] B
cfg\[44\] B
cfg\[45\] B
cfg\[46\] B
cfg\[47\] B
cfg\[48\] B
cfg\[49\] B
cfg\[4\] B
cfg\[50\] B
cfg\[51\] B
cfg\[52\] B
cfg\[53\] B
cfg\[54\] B
cfg\[55\] B
cfg\[56\] B
cfg\[57\] B
cfg\[58\] B
cfg\[59\] B
cfg\[5\] B
cfg\[60\] B
cfg\[61\] B
cfg\[62\] B
cfg\[63\] B
cfg\[64\] B
cfg\[65\] B
cfg\[66\] B
cfg\[67\] B
cfg\[68\] B
cfg\[69\] B
cfg\[6\] B
cfg\[70\] B
cfg\[71\] B
cfg\[72\] B
cfg\[73\] B
cfg\[74\] B
cfg\[75\] B
cfg\[76\] B
cfg\[77\] B
cfg\[78\] B
cfg\[79\] B
cfg\[7\] B
cfg\[80\] B
cfg\[81\] B
cfg\[82\] B
cfg\[83\] B
cfg\[84\] B
cfg\[85\] B
cfg\[86\] B
cfg\[87\] B
cfg\[88\] B
cfg\[89\] B
cfg\[8\] B
cfg\[90\] B
cfg\[91\] B
cfg\[92\] B
cfg\[93\] B
cfg\[94\] B
cfg\[95\] B
cfg\[96\] B
cfg\[97\] B
cfg\[98\] B
cfg\[99\] B
cfg\[9\] B
clk B
e_in\[0\] B
e_in\[1\] B
e_in\[2\] B
e_in\[3\] B
e_out\[0\] B
e_out\[1\] B
e_out\[2\] B
e_out\[3\] B
n_in\[0\] B
n_in\[1\] B
n_in\[2\] B
n_in\[3\] B
n_out\[0\] B
n_out\[1\] B
n_out\[2\] B
n_out\[3\] B
s_in\[0\] B
s_in\[1\] B
s_in\[2\] B
s_in\[3\] B
s_out\[0\] B
s_out\[1\] B
s_out\[2\] B
s_out\[3\] B
w_in\[0\] B
w_in\[1\] B
w_in\[2\] B
w_in\[3\] B
w_out\[0\] B
w_out\[1\] B
w_out\[2\] B
w_out\[3\] B

*D_NET VGND 254.317936
*CONN
*P VGND B
*CAP
1 VGND:2 240.032965
2 VGND:2 VPWR:2 1.976650
3 VGND:2 bel_en\[0\]:2 0.048974
4 VGND:2 bel_en\[1\]:2 0.050952
5 VGND:2 bel_en\[2\]:2 0.053972
6 VGND:2 bel_en\[3\]:2 0.017851
7 VGND:2 bel_o\[0\]:2 0.235584
8 VGND:2 bel_o\[1\]:2 0.264978
9 VGND:2 bel_o\[2\]:2 0.243090
10 VGND:2 bel_o\[3\]:2 0.209483
11 VGND:2 bel_sr\[0\]:2 0.098411
12 VGND:2 cfg\[0\]:2 0.035982
13 VGND:2 cfg\[100\]:2 0.152632
14 VGND:2 cfg\[101\]:2 0.008995
15 VGND:2 cfg\[102\]:2 0.011836
16 VGND:2 cfg\[103\]:2 0.026071
17 VGND:2 cfg\[104\]:2 0.017991
18 VGND:2 cfg\[106\]:2 0.030172
19 VGND:2 cfg\[10\]:2 0.067321
20 VGND:2 cfg\[110\]:2 0.026986
21 VGND:2 cfg\[111\]:2 0.017991
22 VGND:2 cfg\[112\]:2 0.035982
23 VGND:2 cfg\[113\]:2 0.010588
24 VGND:2 cfg\[115\]:2 0.008995
25 VGND:2 cfg\[116\]:2 0.008995
26 VGND:2 cfg\[117\]:2 0.000942
27 VGND:2 cfg\[11\]:2 0.040334
28 VGND:2 cfg\[120\]:2 0.010588
29 VGND:2 cfg\[121\]:2 0.004899
30 VGND:2 cfg\[124\]:2 0.020832
31 VGND:2 cfg\[125\]:2 0.049330
32 VGND:2 cfg\[128\]:2 0.003186
33 VGND:2 cfg\[12\]:2 0.057244
34 VGND:2 cfg\[130\]:2 0.017991
35 VGND:2 cfg\[131\]:2 0.040222
36 VGND:2 cfg\[132\]:2 0.008995
37 VGND:2 cfg\[133\]:2 0.008995
38 VGND:2 cfg\[135\]:2 0.003186
39 VGND:2 cfg\[137\]:2 0.013562
40 VGND:2 cfg\[139\]:2 0.021177
41 VGND:2 cfg\[13\]:2 0.082128
42 VGND:2 cfg\[140\]:2 0.008995
43 VGND:2 cfg\[141\]:2 0.008995
44 VGND:2 cfg\[143\]:2 0.026986
45 VGND:2 cfg\[144\]:2 0.026986
46 VGND:2 cfg\[145\]:2 0.026986
47 VGND:2 cfg\[146\]:2 0.012181
48 VGND:2 cfg\[147\]:2 0.017991
49 VGND:2 cfg\[148\]:2 0.008995
50 VGND:2 cfg\[149\]:2 0.005050
51 VGND:2 cfg\[14\]:2 0.122463
52 VGND:2 cfg\[150\]:2 0.049330
53 VGND:2 cfg\[151\]:2 0.049330
54 VGND:2 cfg\[152\]:2 0.049330
55 VGND:2 cfg\[153\]:2 0.049330
56 VGND:2 cfg\[154\]:2 0.040334
57 VGND:2 cfg\[155\]:2 0.049330
58 VGND:2 cfg\[156\]:2 0.049330
59 VGND:2 cfg\[157\]:2 0.049330
60 VGND:2 cfg\[15\]:2 0.186740
61 VGND:2 cfg\[16\]:2 0.067321
62 VGND:2 cfg\[17\]:2 0.005050
63 VGND:2 cfg\[18\]:2 0.049330
64 VGND:2 cfg\[19\]:2 0.057244
65 VGND:2 cfg\[1\]:2 0.090182
66 VGND:2 cfg\[21\]:2 0.004057
67 VGND:2 cfg\[23\]:2 0.048248
68 VGND:2 cfg\[24\]:2 0.049330
69 VGND:2 cfg\[26\]:2 0.040334
70 VGND:2 cfg\[27\]:2 0.040334
71 VGND:2 cfg\[28\]:2 0.049330
72 VGND:2 cfg\[29\]:2 0.008074
73 VGND:2 cfg\[2\]:2 0.089664
74 VGND:2 cfg\[30\]:2 0.031043
75 VGND:2 cfg\[31\]:2 0.037575
76 VGND:2 cfg\[32\]:2 0.076316
77 VGND:2 cfg\[33\]:2 0.049330
78 VGND:2 cfg\[34\]:2 0.013562
79 VGND:2 cfg\[36\]:2 0.049330
80 VGND:2 cfg\[37\]:2 0.049330
81 VGND:2 cfg\[38\]:2 0.049330
82 VGND:2 cfg\[39\]:2 0.005050
83 VGND:2 cfg\[3\]:2 0.024213
84 VGND:2 cfg\[40\]:2 0.040334
85 VGND:2 cfg\[41\]:2 0.040334
86 VGND:2 cfg\[42\]:2 0.005050
87 VGND:2 cfg\[43\]:2 0.040334
88 VGND:2 cfg\[44\]:2 0.040334
89 VGND:2 cfg\[45\]:2 0.040334
90 VGND:2 cfg\[46\]:2 0.008074
91 VGND:2 cfg\[47\]:2 0.049330
92 VGND:2 cfg\[48\]:2 0.049330
93 VGND:2 cfg\[49\]:2 0.049330
94 VGND:2 cfg\[4\]:2 0.112492
95 VGND:2 cfg\[50\]:2 0.067321
96 VGND:2 cfg\[51\]:2 0.054109
97 VGND:2 cfg\[52\]:2 0.071957
98 VGND:2 cfg\[53\]:2 0.000942
99 VGND:2 cfg\[54\]:2 0.026986
100 VGND:2 cfg\[55\]:2 0.016909
101 VGND:2 cfg\[56\]:2 0.008995
102 VGND:2 cfg\[57\]:2 0.008995
103 VGND:2 cfg\[58\]:2 0.008995
104 VGND:2 cfg\[59\]:2 0.008995
105 VGND:2 cfg\[5\]:2 0.043387
106 VGND:2 cfg\[60\]:2 0.008995
107 VGND:2 cfg\[61\]:2 0.012952
108 VGND:2 cfg\[62\]:2 0.008995
109 VGND:2 cfg\[63\]:2 0.021948
110 VGND:2 cfg\[64\]:2 0.017991
111 VGND:2 cfg\[65\]:2 0.017991
112 VGND:2 cfg\[66\]:2 0.031118
113 VGND:2 cfg\[67\]:2 0.043387
114 VGND:2 cfg\[68\]:2 0.026986
115 VGND:2 cfg\[69\]:2 0.026986
116 VGND:2 cfg\[6\]:2 0.053972
117 VGND:2 cfg\[70\]:2 0.026986
118 VGND:2 cfg\[71\]:2 0.031646
119 VGND:2 cfg\[72\]:2 0.026986
120 VGND:2 cfg\[73\]:2 0.033881
121 VGND:2 cfg\[74\]:2 0.044977
122 VGND:2 cfg\[75\]:2 0.035982
123 VGND:2 cfg\[76\]:2 0.044977
124 VGND:2 cfg\[77\]:2 0.044977
125 VGND:2 cfg\[78\]:2 0.035982
126 VGND:2 cfg\[79\]:2 0.035982
127 VGND:2 cfg\[7\]:2 0.053972
128 VGND:2 cfg\[80\]:2 0.026986
129 VGND:2 cfg\[81\]:2 0.017991
130 VGND:2 cfg\[82\]:2 0.031243
131 VGND:2 cfg\[83\]:2 0.035982
132 VGND:2 cfg\[84\]:2 0.026013
133 VGND:2 cfg\[85\]:2 0.035982
134 VGND:2 cfg\[86\]:2 0.032727
135 VGND:2 cfg\[87\]:2 0.026986
136 VGND:2 cfg\[88\]:2 0.076429
137 VGND:2 cfg\[89\]:2 0.045664
138 VGND:2 cfg\[8\]:2 0.076020
139 VGND:2 cfg\[90\]:2 0.067321
140 VGND:2 cfg\[91\]:2 0.026986
141 VGND:2 cfg\[92\]:2 0.017991
142 VGND:2 cfg\[93\]:2 0.018984
143 VGND:2 cfg\[94\]:2 0.017991
144 VGND:2 cfg\[95\]:2 0.046926
145 VGND:2 cfg\[96\]:2 0.017991
146 VGND:2 cfg\[97\]:2 0.036975
147 VGND:2 cfg\[98\]:2 0.081836
148 VGND:2 cfg\[99\]:2 0.067747
149 VGND:2 cfg\[9\]:2 0.071963
150 VGND:2 clk:2 0.071963
151 VGND:2 clknet_0_clk:2 0.023010
152 VGND:2 clknet_1_0__leaf_clk:2 0.045750
153 VGND:2 clknet_1_1__leaf_clk:2 0.008995
154 VGND:2 e_in\[0\]:2 0.196627
155 VGND:2 e_in\[1\]:2 0.138358
156 VGND:2 e_in\[2\]:2 0.176522
157 VGND:2 e_in\[3\]:2 0.199855
158 VGND:2 e_out\[0\]:2 0.008995
159 VGND:2 e_out\[1\]:2 0.017991
160 VGND:2 e_out\[2\]:2 0.013072
161 VGND:2 e_out\[3\]:2 0.022770
162 VGND:2 g_slice_0__u_slice___00_:2 0.017991
163 VGND:2 g_slice_0__u_slice___01_:2 0.023795
164 VGND:2 g_slice_0__u_slice___02_:2 0.008995
165 VGND:2 g_slice_0__u_slice___03_:2 0.008995
166 VGND:2 g_slice_0__u_slice___04_:2 0.008995
167 VGND:2 g_slice_0__u_slice___05_:2 0.017991
168 VGND:2 g_slice_0__u_slice___06_:2 0.020689
169 VGND:2 g_slice_0__u_slice___07_:2 0.012147
170 VGND:2 g_slice_0__u_slice___08_:2 0.012833
171 VGND:2 g_slice_0__u_slice__ff_q:2 0.020709
172 VGND:2 g_slice_1__u_slice___00_:2 0.008995
173 VGND:2 g_slice_1__u_slice___01_:2 0.020282
174 VGND:2 g_slice_1__u_slice___02_:2 0.000999
175 VGND:2 g_slice_1__u_slice___03_:2 0.027080
176 VGND:2 g_slice_1__u_slice___04_:2 0.017991
177 VGND:2 g_slice_1__u_slice___05_:2 0.018751
178 VGND:2 g_slice_1__u_slice___06_:2 0.012673
179 VGND:2 g_slice_1__u_slice___08_:2 0.005876
180 VGND:2 g_slice_1__u_slice__ff_q:2 0.008995
181 VGND:2 g_slice_2__u_slice___00_:2 0.008995
182 VGND:2 g_slice_2__u_slice___01_:2 0.016949
183 VGND:2 g_slice_2__u_slice___02_:2 0.025945
184 VGND:2 g_slice_2__u_slice___03_:2 0.024701
185 VGND:2 g_slice_2__u_slice___04_:2 0.017991
186 VGND:2 g_slice_2__u_slice___05_:2 0.033072
187 VGND:2 g_slice_2__u_slice___07_:2 0.006107
188 VGND:2 g_slice_2__u_slice___08_:2 0.020986
189 VGND:2 g_slice_2__u_slice__ff_q:2 0.008995
190 VGND:2 g_slice_3__u_slice___00_:2 0.012199
191 VGND:2 g_slice_3__u_slice___01_:2 0.012992
192 VGND:2 g_slice_3__u_slice___02_:2 0.008995
193 VGND:2 g_slice_3__u_slice___03_:2 0.008995
194 VGND:2 g_slice_3__u_slice___05_:2 0.092883
195 VGND:2 g_slice_3__u_slice___08_:2 0.005876
196 VGND:2 g_slice_3__u_slice__ff_q:2 0.017991
197 VGND:2 lut_in\[0\]:2 0.026986
198 VGND:2 lut_in\[10\]:2 0.101712
199 VGND:2 lut_in\[11\]:2 0.116650
200 VGND:2 lut_in\[12\]:2 0.017991
201 VGND:2 lut_in\[13\]:2 0.034409
202 VGND:2 lut_in\[14\]:2 0.017991
203 VGND:2 lut_in\[1\]:2 0.027928
204 VGND:2 lut_in\[2\]:2 0.005799
205 VGND:2 lut_in\[4\]:2 0.017991
206 VGND:2 lut_in\[5\]:2 0.085487
207 VGND:2 lut_in\[6\]:2 0.016864
208 VGND:2 lut_in\[7\]:2 0.008995
209 VGND:2 lut_in\[8\]:2 0.142213
210 VGND:2 lut_in\[9\]:2 0.121089
211 VGND:2 n_in\[0\]:2 0.145534
212 VGND:2 n_in\[1\]:2 0.192136
213 VGND:2 n_in\[2\]:2 0.209689
214 VGND:2 n_in\[3\]:2 0.179134
215 VGND:2 n_out\[0\]:2 0.017991
216 VGND:2 n_out\[1\]:2 0.017991
217 VGND:2 n_out\[2\]:2 0.032798
218 VGND:2 n_out\[3\]:2 0.076316
219 VGND:2 s_in\[0\]:2 0.208349
220 VGND:2 s_in\[1\]:2 0.203381
221 VGND:2 s_in\[2\]:2 0.205952
222 VGND:2 s_in\[3\]:2 0.180102
223 VGND:2 s_out\[0\]:2 0.022068
224 VGND:2 s_out\[1\]:2 0.022068
225 VGND:2 s_out\[2\]:2 0.053131
226 VGND:2 s_out\[3\]:2 0.209387
227 VGND:2 u_sm___001_:2 0.016418
228 VGND:2 u_sm___003_:2 0.017991
229 VGND:2 u_sm___005_:2 0.012713
230 VGND:2 u_sm___006_:2 0.008995
231 VGND:2 u_sm___008_:2 0.008995
232 VGND:2 u_sm___009_:2 0.024764
233 VGND:2 u_sm___010_:2 0.019641
234 VGND:2 u_sm___011_:2 0.043387
235 VGND:2 u_sm___012_:2 0.017991
236 VGND:2 u_sm___015_:2 0.008995
237 VGND:2 u_sm___016_:2 0.021988
238 VGND:2 u_sm___018_:2 0.013952
239 VGND:2 u_sm___021_:2 0.008995
240 VGND:2 u_sm___022_:2 0.019692
241 VGND:2 u_sm___023_:2 0.027223
242 VGND:2 u_sm___024_:2 0.008995
243 VGND:2 u_sm___025_:2 0.008995
244 VGND:2 u_sm___026_:2 0.008995
245 VGND:2 u_sm___027_:2 0.013774
246 VGND:2 u_sm___028_:2 0.008995
247 VGND:2 u_sm___029_:2 0.008995
248 VGND:2 u_sm___030_:2 0.018908
249 VGND:2 u_sm___031_:2 0.010646
250 VGND:2 u_sm___032_:2 0.019584
251 VGND:2 u_sm___033_:2 0.008995
252 VGND:2 u_sm___036_:2 0.008995
253 VGND:2 u_sm___037_:2 0.020806
254 VGND:2 u_sm___038_:2 0.017991
255 VGND:2 u_sm___039_:2 0.026210
256 VGND:2 u_sm___042_:2 0.008995
257 VGND:2 u_sm___043_:2 0.008995
258 VGND:2 u_sm___044_:2 0.027281
259 VGND:2 u_sm___045_:2 0.008995
260 VGND:2 u_sm___046_:2 0.006606
261 VGND:2 u_sm___047_:2 0.003717
262 VGND:2 u_sm___050_:2 0.006606
263 VGND:2 u_sm___052_:2 0.008995
264 VGND:2 u_sm___053_:2 0.017991
265 VGND:2 u_sm___054_:2 0.017991
266 VGND:2 u_sm___055_:2 0.017991
267 VGND:2 u_sm___056_:2 0.016949
268 VGND:2 u_sm___059_:2 0.001650
269 VGND:2 u_sm___061_:2 0.017991
270 VGND:2 u_sm___063_:2 0.012239
271 VGND:2 u_sm___064_:2 0.010974
272 VGND:2 u_sm___065_:2 0.017991
273 VGND:2 u_sm___066_:2 0.008995
274 VGND:2 u_sm___067_:2 0.054380
275 VGND:2 w_in\[0\]:2 0.323367
276 VGND:2 w_in\[1\]:2 0.223639
277 VGND:2 w_in\[2\]:2 0.235184
278 VGND:2 w_in\[3\]:2 0.152320
279 VGND:2 w_out\[0\]:2 0.014066
280 VGND:2 w_out\[1\]:2 0.026316
281 VGND:2 w_out\[2\]:2 0.044695
282 VGND:2 w_out\[3\]:2 0.035982
*RES
1 VGND VGND:2 79678.612700
*END

*D_NET VPWR 246.958839
*CONN
*P VPWR B
*CAP
1 VPWR:2 236.785619
2 VPWR:2 bel_en\[0\]:2 0.046347
3 VPWR:2 bel_en\[1\]:2 0.044977
4 VPWR:2 bel_en\[2\]:2 0.044977
5 VPWR:2 bel_en\[3\]:2 0.006761
6 VPWR:2 bel_o\[0\]:2 0.203695
7 VPWR:2 bel_o\[1\]:2 0.192069
8 VPWR:2 bel_o\[2\]:2 0.251585
9 VPWR:2 bel_o\[3\]:2 0.252601
10 VPWR:2 bel_sr\[0\]:2 0.081790
11 VPWR:2 cfg\[0\]:2 0.044977
12 VPWR:2 cfg\[100\]:2 0.106300
13 VPWR:2 cfg\[101\]:2 0.005576
14 VPWR:2 cfg\[102\]:2 0.008995
15 VPWR:2 cfg\[104\]:2 0.019584
16 VPWR:2 cfg\[105\]:2 0.025898
17 VPWR:2 cfg\[106\]:2 0.042133
18 VPWR:2 cfg\[107\]:2 0.008995
19 VPWR:2 cfg\[108\]:2 0.013818
20 VPWR:2 cfg\[109\]:2 0.008995
21 VPWR:2 cfg\[10\]:2 0.026986
22 VPWR:2 cfg\[110\]:2 0.042380
23 VPWR:2 cfg\[111\]:2 0.019584
24 VPWR:2 cfg\[112\]:2 0.026986
25 VPWR:2 cfg\[113\]:2 0.008995
26 VPWR:2 cfg\[114\]:2 0.004157
27 VPWR:2 cfg\[115\]:2 0.008995
28 VPWR:2 cfg\[118\]:2 0.008995
29 VPWR:2 cfg\[122\]:2 0.010588
30 VPWR:2 cfg\[124\]:2 0.030172
31 VPWR:2 cfg\[125\]:2 0.008995
32 VPWR:2 cfg\[126\]:2 0.003186
33 VPWR:2 cfg\[127\]:2 0.008995
34 VPWR:2 cfg\[12\]:2 0.003186
35 VPWR:2 cfg\[130\]:2 0.036031
36 VPWR:2 cfg\[131\]:2 0.026986
37 VPWR:2 cfg\[132\]:2 0.008995
38 VPWR:2 cfg\[133\]:2 0.012181
39 VPWR:2 cfg\[134\]:2 0.008995
40 VPWR:2 cfg\[135\]:2 0.008995
41 VPWR:2 cfg\[137\]:2 0.003186
42 VPWR:2 cfg\[139\]:2 0.017991
43 VPWR:2 cfg\[140\]:2 0.012181
44 VPWR:2 cfg\[141\]:2 0.017991
45 VPWR:2 cfg\[143\]:2 0.017991
46 VPWR:2 cfg\[144\]:2 0.030172
47 VPWR:2 cfg\[145\]:2 0.035982
48 VPWR:2 cfg\[146\]:2 0.017991
49 VPWR:2 cfg\[147\]:2 0.017991
50 VPWR:2 cfg\[150\]:2 0.012181
51 VPWR:2 cfg\[151\]:2 0.008995
52 VPWR:2 cfg\[152\]:2 0.011993
53 VPWR:2 cfg\[153\]:2 0.008995
54 VPWR:2 cfg\[154\]:2 0.010588
55 VPWR:2 cfg\[155\]:2 0.008995
56 VPWR:2 cfg\[156\]:2 0.027281
57 VPWR:2 cfg\[157\]:2 0.017991
58 VPWR:2 cfg\[15\]:2 0.098660
59 VPWR:2 cfg\[16\]:2 0.026986
60 VPWR:2 cfg\[18\]:2 0.008995
61 VPWR:2 cfg\[19\]:2 0.003186
62 VPWR:2 cfg\[1\]:2 0.043896
63 VPWR:2 cfg\[26\]:2 0.003186
64 VPWR:2 cfg\[2\]:2 0.089664
65 VPWR:2 cfg\[30\]:2 0.026986
66 VPWR:2 cfg\[31\]:2 0.026986
67 VPWR:2 cfg\[32\]:2 0.026986
68 VPWR:2 cfg\[33\]:2 0.010588
69 VPWR:2 cfg\[37\]:2 0.010588
70 VPWR:2 cfg\[3\]:2 0.034845
71 VPWR:2 cfg\[40\]:2 0.010588
72 VPWR:2 cfg\[41\]:2 0.008995
73 VPWR:2 cfg\[44\]:2 0.010588
74 VPWR:2 cfg\[45\]:2 0.008995
75 VPWR:2 cfg\[48\]:2 0.010588
76 VPWR:2 cfg\[49\]:2 0.008995
77 VPWR:2 cfg\[4\]:2 0.053972
78 VPWR:2 cfg\[50\]:2 0.017991
79 VPWR:2 cfg\[51\]:2 0.107639
80 VPWR:2 cfg\[52\]:2 0.067321
81 VPWR:2 cfg\[54\]:2 0.017991
82 VPWR:2 cfg\[59\]:2 0.008995
83 VPWR:2 cfg\[5\]:2 0.022484
84 VPWR:2 cfg\[60\]:2 0.008995
85 VPWR:2 cfg\[61\]:2 0.008995
86 VPWR:2 cfg\[62\]:2 0.008995
87 VPWR:2 cfg\[63\]:2 0.008995
88 VPWR:2 cfg\[64\]:2 0.008995
89 VPWR:2 cfg\[65\]:2 0.008995
90 VPWR:2 cfg\[66\]:2 0.008995
91 VPWR:2 cfg\[67\]:2 0.032798
92 VPWR:2 cfg\[68\]:2 0.017991
93 VPWR:2 cfg\[69\]:2 0.017991
94 VPWR:2 cfg\[6\]:2 0.053972
95 VPWR:2 cfg\[70\]:2 0.017991
96 VPWR:2 cfg\[71\]:2 0.017991
97 VPWR:2 cfg\[72\]:2 0.026986
98 VPWR:2 cfg\[73\]:2 0.017991
99 VPWR:2 cfg\[74\]:2 0.039019
100 VPWR:2 cfg\[75\]:2 0.048932
101 VPWR:2 cfg\[76\]:2 0.044977
102 VPWR:2 cfg\[77\]:2 0.026986
103 VPWR:2 cfg\[78\]:2 0.061511
104 VPWR:2 cfg\[79\]:2 0.035982
105 VPWR:2 cfg\[7\]:2 0.053972
106 VPWR:2 cfg\[80\]:2 0.026986
107 VPWR:2 cfg\[81\]:2 0.008995
108 VPWR:2 cfg\[82\]:2 0.026986
109 VPWR:2 cfg\[83\]:2 0.026986
110 VPWR:2 cfg\[84\]:2 0.013829
111 VPWR:2 cfg\[85\]:2 0.040760
112 VPWR:2 cfg\[86\]:2 0.022770
113 VPWR:2 cfg\[87\]:2 0.028771
114 VPWR:2 cfg\[88\]:2 0.047236
115 VPWR:2 cfg\[89\]:2 0.035982
116 VPWR:2 cfg\[8\]:2 0.062968
117 VPWR:2 cfg\[90\]:2 0.044444
118 VPWR:2 cfg\[91\]:2 0.026986
119 VPWR:2 cfg\[92\]:2 0.066531
120 VPWR:2 cfg\[93\]:2 0.008995
121 VPWR:2 cfg\[94\]:2 0.017991
122 VPWR:2 cfg\[95\]:2 0.059018
123 VPWR:2 cfg\[96\]:2 0.042687
124 VPWR:2 cfg\[97\]:2 0.026986
125 VPWR:2 cfg\[98\]:2 0.071639
126 VPWR:2 cfg\[99\]:2 0.053972
127 VPWR:2 cfg\[9\]:2 0.062968
128 VPWR:2 clk:2 0.062968
129 VPWR:2 clknet_0_clk:2 0.017991
130 VPWR:2 clknet_1_0__leaf_clk:2 0.024584
131 VPWR:2 clknet_1_1__leaf_clk:2 0.025505
132 VPWR:2 e_in\[0\]:2 0.157968
133 VPWR:2 e_in\[1\]:2 0.176978
134 VPWR:2 e_in\[2\]:2 0.156122
135 VPWR:2 e_in\[3\]:2 0.166963
136 VPWR:2 e_out\[0\]:2 0.029694
137 VPWR:2 e_out\[1\]:2 0.055520
138 VPWR:2 e_out\[3\]:2 0.049330
139 VPWR:2 g_slice_0__u_slice___00_:2 0.027344
140 VPWR:2 g_slice_0__u_slice___01_:2 0.017991
141 VPWR:2 g_slice_0__u_slice___02_:2 0.008995
142 VPWR:2 g_slice_0__u_slice___04_:2 0.016418
143 VPWR:2 g_slice_0__u_slice___05_:2 0.076684
144 VPWR:2 g_slice_0__u_slice___06_:2 0.008995
145 VPWR:2 g_slice_0__u_slice___08_:2 0.008995
146 VPWR:2 g_slice_0__u_slice__ff_q:2 0.008995
147 VPWR:2 g_slice_1__u_slice___01_:2 0.016418
148 VPWR:2 g_slice_1__u_slice___02_:2 0.008995
149 VPWR:2 g_slice_1__u_slice___04_:2 0.026986
150 VPWR:2 g_slice_1__u_slice___05_:2 0.023038
151 VPWR:2 g_slice_1__u_slice___07_:2 0.021286
152 VPWR:2 g_slice_1__u_slice__ff_q:2 0.008995
153 VPWR:2 g_slice_2__u_slice___01_:2 0.008995
154 VPWR:2 g_slice_2__u_slice___02_:2 0.008995
155 VPWR:2 g_slice_2__u_slice___04_:2 0.017991
156 VPWR:2 g_slice_2__u_slice___05_:2 0.050043
157 VPWR:2 g_slice_2__u_slice___06_:2 0.003943
158 VPWR:2 g_slice_2__u_slice__ff_q:2 0.027310
159 VPWR:2 g_slice_3__u_slice___00_:2 0.008995
160 VPWR:2 g_slice_3__u_slice___02_:2 0.012992
161 VPWR:2 g_slice_3__u_slice___03_:2 0.021988
162 VPWR:2 g_slice_3__u_slice___04_:2 0.008995
163 VPWR:2 g_slice_3__u_slice___05_:2 0.076316
164 VPWR:2 g_slice_3__u_slice___06_:2 0.017629
165 VPWR:2 g_slice_3__u_slice___07_:2 0.008995
166 VPWR:2 g_slice_3__u_slice__ff_q:2 0.020709
167 VPWR:2 lut_in\[0\]:2 0.043285
168 VPWR:2 lut_in\[10\]:2 0.097248
169 VPWR:2 lut_in\[11\]:2 0.125646
170 VPWR:2 lut_in\[12\]:2 0.026986
171 VPWR:2 lut_in\[13\]:2 0.026986
172 VPWR:2 lut_in\[14\]:2 0.025088
173 VPWR:2 lut_in\[15\]:2 0.002998
174 VPWR:2 lut_in\[1\]:2 0.035620
175 VPWR:2 lut_in\[2\]:2 0.008995
176 VPWR:2 lut_in\[3\]:2 0.007303
177 VPWR:2 lut_in\[4\]:2 0.073129
178 VPWR:2 lut_in\[5\]:2 0.072260
179 VPWR:2 lut_in\[6\]:2 0.006475
180 VPWR:2 lut_in\[7\]:2 0.035258
181 VPWR:2 lut_in\[8\]:2 0.145813
182 VPWR:2 lut_in\[9\]:2 0.143637
183 VPWR:2 n_in\[0\]:2 0.212673
184 VPWR:2 n_in\[1\]:2 0.126299
185 VPWR:2 n_in\[2\]:2 0.191678
186 VPWR:2 n_in\[3\]:2 0.236719
187 VPWR:2 n_out\[0\]:2 0.008995
188 VPWR:2 n_out\[1\]:2 0.008995
189 VPWR:2 n_out\[2\]:2 0.016715
190 VPWR:2 n_out\[3\]:2 0.071962
191 VPWR:2 s_in\[0\]:2 0.182415
192 VPWR:2 s_in\[1\]:2 0.212127
193 VPWR:2 s_in\[2\]:2 0.161627
194 VPWR:2 s_in\[3\]:2 0.176635
195 VPWR:2 s_out\[0\]:2 0.008995
196 VPWR:2 s_out\[1\]:2 0.008995
197 VPWR:2 s_out\[2\]:2 0.044592
198 VPWR:2 s_out\[3\]:2 0.065597
199 VPWR:2 u_sm___003_:2 0.030621
200 VPWR:2 u_sm___005_:2 0.013472
201 VPWR:2 u_sm___006_:2 0.017629
202 VPWR:2 u_sm___008_:2 0.013935
203 VPWR:2 u_sm___009_:2 0.035780
204 VPWR:2 u_sm___010_:2 0.027544
205 VPWR:2 u_sm___011_:2 0.049330
206 VPWR:2 u_sm___012_:2 0.037074
207 VPWR:2 u_sm___013_:2 0.008995
208 VPWR:2 u_sm___014_:2 0.008995
209 VPWR:2 u_sm___015_:2 0.004157
210 VPWR:2 u_sm___016_:2 0.017991
211 VPWR:2 u_sm___017_:2 0.016715
212 VPWR:2 u_sm___019_:2 0.004157
213 VPWR:2 u_sm___020_:2 0.014043
214 VPWR:2 u_sm___021_:2 0.022071
215 VPWR:2 u_sm___022_:2 0.016464
216 VPWR:2 u_sm___023_:2 0.017991
217 VPWR:2 u_sm___024_:2 0.030193
218 VPWR:2 u_sm___026_:2 0.008995
219 VPWR:2 u_sm___027_:2 0.013152
220 VPWR:2 u_sm___028_:2 0.002038
221 VPWR:2 u_sm___029_:2 0.035204
222 VPWR:2 u_sm___030_:2 0.013301
223 VPWR:2 u_sm___031_:2 0.008995
224 VPWR:2 u_sm___032_:2 0.020989
225 VPWR:2 u_sm___034_:2 0.008995
226 VPWR:2 u_sm___035_:2 0.023225
227 VPWR:2 u_sm___036_:2 0.014271
228 VPWR:2 u_sm___037_:2 0.013152
229 VPWR:2 u_sm___038_:2 0.049320
230 VPWR:2 u_sm___039_:2 0.017991
231 VPWR:2 u_sm___040_:2 0.008995
232 VPWR:2 u_sm___041_:2 0.004157
233 VPWR:2 u_sm___043_:2 0.022288
234 VPWR:2 u_sm___044_:2 0.008995
235 VPWR:2 u_sm___045_:2 0.019627
236 VPWR:2 u_sm___048_:2 0.026902
237 VPWR:2 u_sm___049_:2 0.014860
238 VPWR:2 u_sm___051_:2 0.019049
239 VPWR:2 u_sm___052_:2 0.014271
240 VPWR:2 u_sm___053_:2 0.031143
241 VPWR:2 u_sm___054_:2 0.038538
242 VPWR:2 u_sm___055_:2 0.022148
243 VPWR:2 u_sm___057_:2 0.008995
244 VPWR:2 u_sm___058_:2 0.025083
245 VPWR:2 u_sm___060_:2 0.043255
246 VPWR:2 u_sm___061_:2 0.022781
247 VPWR:2 u_sm___062_:2 0.013472
248 VPWR:2 u_sm___063_:2 0.010588
249 VPWR:2 u_sm___065_:2 0.033739
250 VPWR:2 u_sm___066_:2 0.013152
251 VPWR:2 u_sm___067_:2 0.008995
252 VPWR:2 w_in\[0\]:2 0.229238
253 VPWR:2 w_in\[1\]:2 0.183446
254 VPWR:2 w_in\[2\]:2 0.134931
255 VPWR:2 w_in\[3\]:2 0.168212
256 VPWR:2 w_out\[0\]:2 0.017991
257 VPWR:2 w_out\[1\]:2 0.029342
258 VPWR:2 w_out\[2\]:2 0.035982
259 VPWR:2 w_out\[3\]:2 0.064674
*RES
1 VPWR VPWR:2 82446.243500
*END

*D_NET bel_en\[0\] 3.831166
*CONN
*I u_sm___169_:X B
*I g_slice_0__u_slice___16_:B B
*I g_slice_0__u_slice___15_:A B
*CAP
1 bel_en\[0\]:2 3.661072
2 bel_en\[0\]:2 bel_en\[1\]:2 0.003620
3 bel_en\[0\]:2 bel_en\[2\]:2 0.003620
4 bel_en\[0\]:2 bel_o\[0\]:2 0.006244
5 bel_en\[0\]:2 bel_sr\[0\]:2 0.018714
6 bel_en\[0\]:2 cfg\[152\]:2 0.005247
7 bel_en\[0\]:2 cfg\[154\]:2 0.003620
8 bel_en\[0\]:2 cfg\[156\]:2 0.003620
9 bel_en\[0\]:2 cfg\[157\]:2 0.003620
10 bel_en\[0\]:2 cfg\[15\]:2 0.003620
11 bel_en\[0\]:2 cfg\[16\]:2 0.007240
12 bel_en\[0\]:2 cfg\[18\]:2 0.002624
13 bel_en\[0\]:2 cfg\[19\]:2 0.003620
14 bel_en\[0\]:2 cfg\[1\]:2 0.007240
15 bel_en\[0\]:2 cfg\[20\]:2 0.002624
16 bel_en\[0\]:2 cfg\[22\]:2 0.002624
17 bel_en\[0\]:2 cfg\[23\]:2 0.003620
18 bel_en\[0\]:2 cfg\[24\]:2 0.002624
19 bel_en\[0\]:2 cfg\[30\]:2 0.002624
20 bel_en\[0\]:2 cfg\[31\]:2 0.002624
21 bel_en\[0\]:2 cfg\[32\]:2 0.003620
22 bel_en\[0\]:2 cfg\[51\]:2 0.003620
23 bel_en\[0\]:2 cfg\[52\]:2 0.002624
24 bel_en\[0\]:2 g_slice_0__u_slice___00_:2 0.006244
25 bel_en\[0\]:2 g_slice_0__u_slice___05_:2 0.003620
26 bel_en\[0\]:2 g_slice_0__u_slice___06_:2 0.005201
27 bel_en\[0\]:2 g_slice_0__u_slice___07_:2 0.005068
28 bel_en\[0\]:2 g_slice_0__u_slice___08_:2 0.002624
29 bel_en\[0\]:2 g_slice_0__u_slice__ff_q:2 0.003620
30 bel_en\[0\]:2 g_slice_1__u_slice___02_:2 0.004217
31 bel_en\[0\]:2 g_slice_1__u_slice___03_:2 0.003620
32 bel_en\[0\]:2 g_slice_1__u_slice___04_:2 0.007692
33 bel_en\[0\]:2 lut_in\[11\]:2 0.003620
34 bel_en\[0\]:2 lut_in\[4\]:2 0.011491
35 bel_en\[0\]:2 lut_in\[5\]:2 0.006244
36 bel_en\[0\]:2 n_in\[0\]:2 0.004956
37 bel_en\[0\]:2 s_out\[2\]:2 0.002624
*RES
1 bel_en\[0\]:1 bel_en\[0\]:2 185.956400
2 bel_en\[0\]:1 u_sm___169_:X 0.000000
3 bel_en\[0\]:1 g_slice_0__u_slice___16_:B 0.000000
4 bel_en\[0\]:1 g_slice_0__u_slice___15_:A 0.000000
*END

*D_NET bel_en\[1\] 3.025850
*CONN
*I u_sm___170_:X B
*I g_slice_1__u_slice___16_:B B
*I g_slice_1__u_slice___15_:A B
*CAP
1 bel_en\[1\]:2 2.889740
2 bel_en\[1\]:2 bel_sr\[0\]:2 0.006244
3 bel_en\[1\]:2 cfg\[152\]:2 0.004397
4 bel_en\[1\]:2 cfg\[154\]:2 0.005068
5 bel_en\[1\]:2 cfg\[15\]:2 0.003620
6 bel_en\[1\]:2 cfg\[16\]:2 0.003620
7 bel_en\[1\]:2 cfg\[18\]:2 0.004310
8 bel_en\[1\]:2 cfg\[19\]:2 0.002624
9 bel_en\[1\]:2 cfg\[1\]:2 0.006244
10 bel_en\[1\]:2 cfg\[20\]:2 0.002624
11 bel_en\[1\]:2 cfg\[22\]:2 0.004310
12 bel_en\[1\]:2 cfg\[23\]:2 0.002624
13 bel_en\[1\]:2 cfg\[24\]:2 0.002624
14 bel_en\[1\]:2 cfg\[26\]:2 0.004310
15 bel_en\[1\]:2 cfg\[27\]:2 0.003620
16 bel_en\[1\]:2 cfg\[28\]:2 0.009285
17 bel_en\[1\]:2 cfg\[2\]:2 0.005068
18 bel_en\[1\]:2 cfg\[30\]:2 0.004310
19 bel_en\[1\]:2 cfg\[31\]:2 0.002624
20 bel_en\[1\]:2 cfg\[32\]:2 0.002624
21 bel_en\[1\]:2 cfg\[4\]:2 0.009839
22 bel_en\[1\]:2 cfg\[51\]:2 0.003620
23 bel_en\[1\]:2 cfg\[52\]:2 0.002624
24 bel_en\[1\]:2 g_slice_1__u_slice___02_:2 0.004310
25 bel_en\[1\]:2 g_slice_1__u_slice___03_:2 0.003620
26 bel_en\[1\]:2 g_slice_1__u_slice___04_:2 0.002624
27 bel_en\[1\]:2 g_slice_1__u_slice___06_:2 0.003514
28 bel_en\[1\]:2 g_slice_1__u_slice___07_:2 0.004819
29 bel_en\[1\]:2 g_slice_1__u_slice__ff_q:2 0.005247
30 bel_en\[1\]:2 lut_in\[4\]:2 0.010495
31 bel_en\[1\]:2 lut_in\[7\]:2 0.002624
32 bel_en\[1\]:2 s_out\[2\]:2 0.002624
*RES
1 bel_en\[1\]:1 bel_en\[1\]:2 187.810200
2 bel_en\[1\]:1 u_sm___170_:X 0.000000
3 bel_en\[1\]:1 g_slice_1__u_slice___16_:B 0.000000
4 bel_en\[1\]:1 g_slice_1__u_slice___15_:A 0.000000
*END

*D_NET bel_en\[2\] 3.362854
*CONN
*I u_sm___171_:X B
*I g_slice_2__u_slice___16_:B B
*I g_slice_2__u_slice___15_:A B
*CAP
1 bel_en\[2\]:2 3.196795
2 bel_en\[2\]:2 bel_o\[1\]:2 0.002624
3 bel_en\[2\]:2 bel_sr\[0\]:2 0.007240
4 bel_en\[2\]:2 cfg\[154\]:2 0.007837
5 bel_en\[2\]:2 cfg\[16\]:2 0.003620
6 bel_en\[2\]:2 cfg\[19\]:2 0.004310
7 bel_en\[2\]:2 cfg\[23\]:2 0.004310
8 bel_en\[2\]:2 cfg\[27\]:2 0.009839
9 bel_en\[2\]:2 cfg\[2\]:2 0.003620
10 bel_en\[2\]:2 cfg\[31\]:2 0.004310
11 bel_en\[2\]:2 cfg\[3\]:2 0.002624
12 bel_en\[2\]:2 cfg\[4\]:2 0.002624
13 bel_en\[2\]:2 cfg\[51\]:2 0.003620
14 bel_en\[2\]:2 cfg\[52\]:2 0.002624
15 bel_en\[2\]:2 g_slice_1__u_slice___03_:2 0.004310
16 bel_en\[2\]:2 g_slice_1__u_slice___05_:2 0.002624
17 bel_en\[2\]:2 g_slice_1__u_slice___06_:2 0.002624
18 bel_en\[2\]:2 g_slice_1__u_slice___07_:2 0.009839
19 bel_en\[2\]:2 g_slice_1__u_slice___08_:2 0.002624
20 bel_en\[2\]:2 g_slice_2__u_slice___05_:2 0.004499
21 bel_en\[2\]:2 g_slice_2__u_slice___06_:2 0.002624
22 bel_en\[2\]:2 g_slice_2__u_slice___08_:2 0.002624
23 bel_en\[2\]:2 lut_in\[10\]:2 0.003620
24 bel_en\[2\]:2 lut_in\[4\]:2 0.017241
25 bel_en\[2\]:2 lut_in\[5\]:2 0.002624
26 bel_en\[2\]:2 lut_in\[6\]:2 0.002624
27 bel_en\[2\]:2 lut_in\[7\]:2 0.004310
28 bel_en\[2\]:2 lut_in\[8\]:2 0.002624
29 bel_en\[2\]:2 lut_in\[9\]:2 0.005773
30 bel_en\[2\]:2 n_in\[1\]:2 0.002624
31 bel_en\[2\]:2 n_in\[2\]:2 0.010301
32 bel_en\[2\]:2 n_out\[3\]:2 0.006244
33 bel_en\[2\]:2 s_in\[3\]:2 0.007240
34 bel_en\[2\]:2 s_out\[2\]:2 0.003620
35 bel_en\[2\]:2 u_sm___032_:2 0.006244
*RES
1 bel_en\[2\]:1 bel_en\[2\]:2 188.545500
2 bel_en\[2\]:1 u_sm___171_:X 0.000000
3 bel_en\[2\]:1 g_slice_2__u_slice___16_:B 0.000000
4 bel_en\[2\]:1 g_slice_2__u_slice___15_:A 0.000000
*END

*D_NET bel_en\[3\] 2.116239
*CONN
*I u_sm___172_:X B
*I g_slice_3__u_slice___16_:B B
*I g_slice_3__u_slice___15_:A B
*CAP
1 bel_en\[3\]:2 2.018094
2 bel_en\[3\]:2 bel_o\[1\]:2 0.003620
3 bel_en\[3\]:2 bel_o\[2\]:2 0.003620
4 bel_en\[3\]:2 cfg\[156\]:2 0.004397
5 bel_en\[3\]:2 cfg\[157\]:2 0.002718
6 bel_en\[3\]:2 cfg\[98\]:2 0.003620
7 bel_en\[3\]:2 cfg\[99\]:2 0.010554
8 bel_en\[3\]:2 cfg\[9\]:2 0.003620
9 bel_en\[3\]:2 clk:2 0.006244
10 bel_en\[3\]:2 g_slice_3__u_slice___05_:2 0.015133
11 bel_en\[3\]:2 g_slice_3__u_slice___06_:2 0.005247
12 bel_en\[3\]:2 g_slice_3__u_slice___07_:2 0.007900
13 bel_en\[3\]:2 g_slice_3__u_slice__ff_q:2 0.002624
14 bel_en\[3\]:2 lut_in\[10\]:2 0.007563
15 bel_en\[3\]:2 lut_in\[11\]:2 0.008205
16 bel_en\[3\]:2 n_in\[3\]:2 0.003137
17 bel_en\[3\]:2 s_in\[3\]:2 0.006323
18 bel_en\[3\]:2 w_in\[2\]:2 0.003620
*RES
1 bel_en\[3\]:1 bel_en\[3\]:2 170.227100
2 bel_en\[3\]:1 u_sm___172_:X 0.000000
3 bel_en\[3\]:1 g_slice_3__u_slice___16_:B 0.000000
4 bel_en\[3\]:1 g_slice_3__u_slice___15_:A 0.000000
*END

*D_NET bel_o\[0\] 17.638178
*CONN
*I u_sm___073_:A B
*I u_sm___079_:A B
*I u_sm___084_:A B
*I u_sm___089_:A B
*I u_sm___094_:A B
*I u_sm___099_:A B
*I u_sm___104_:A B
*I u_sm___109_:A B
*I u_sm___114_:A B
*I u_sm___119_:A B
*I u_sm___163_:A B
*I u_sm___150_:A B
*I u_sm___139_:A B
*I u_sm___134_:A B
*I u_sm___129_:A B
*I u_sm___124_:A B
*I g_slice_0__u_slice___14_:X B
*CAP
1 bel_o\[0\]:2 16.687788
2 bel_o\[0\]:2 bel_o\[1\]:2 0.034201
3 bel_o\[0\]:2 bel_o\[2\]:2 0.021049
4 bel_o\[0\]:2 bel_o\[3\]:2 0.049448
5 bel_o\[0\]:2 bel_sr\[0\]:2 0.002624
6 bel_o\[0\]:2 cfg\[101\]:2 0.005501
7 bel_o\[0\]:2 cfg\[102\]:2 0.003137
8 bel_o\[0\]:2 cfg\[104\]:2 0.010829
9 bel_o\[0\]:2 cfg\[105\]:2 0.002624
10 bel_o\[0\]:2 cfg\[106\]:2 0.009558
11 bel_o\[0\]:2 cfg\[107\]:2 0.002624
12 bel_o\[0\]:2 cfg\[108\]:2 0.002624
13 bel_o\[0\]:2 cfg\[109\]:2 0.004310
14 bel_o\[0\]:2 cfg\[10\]:2 0.007240
15 bel_o\[0\]:2 cfg\[110\]:2 0.007240
16 bel_o\[0\]:2 cfg\[111\]:2 0.003620
17 bel_o\[0\]:2 cfg\[112\]:2 0.010377
18 bel_o\[0\]:2 cfg\[113\]:2 0.012462
19 bel_o\[0\]:2 cfg\[114\]:2 0.002624
20 bel_o\[0\]:2 cfg\[115\]:2 0.011600
21 bel_o\[0\]:2 cfg\[11\]:2 0.004310
22 bel_o\[0\]:2 cfg\[12\]:2 0.002624
23 bel_o\[0\]:2 cfg\[13\]:2 0.003620
24 bel_o\[0\]:2 cfg\[14\]:2 0.007240
25 bel_o\[0\]:2 cfg\[154\]:2 0.002624
26 bel_o\[0\]:2 cfg\[156\]:2 0.003620
27 bel_o\[0\]:2 cfg\[157\]:2 0.002624
28 bel_o\[0\]:2 cfg\[15\]:2 0.009864
29 bel_o\[0\]:2 cfg\[4\]:2 0.002718
30 bel_o\[0\]:2 cfg\[51\]:2 0.013756
31 bel_o\[0\]:2 cfg\[52\]:2 0.005247
32 bel_o\[0\]:2 cfg\[69\]:2 0.003186
33 bel_o\[0\]:2 cfg\[71\]:2 0.002624
34 bel_o\[0\]:2 cfg\[72\]:2 0.005247
35 bel_o\[0\]:2 cfg\[73\]:2 0.002624
36 bel_o\[0\]:2 cfg\[74\]:2 0.012181
37 bel_o\[0\]:2 cfg\[75\]:2 0.005247
38 bel_o\[0\]:2 cfg\[76\]:2 0.013118
39 bel_o\[0\]:2 cfg\[77\]:2 0.010495
40 bel_o\[0\]:2 cfg\[78\]:2 0.005247
41 bel_o\[0\]:2 cfg\[79\]:2 0.005247
42 bel_o\[0\]:2 cfg\[7\]:2 0.016866
43 bel_o\[0\]:2 cfg\[80\]:2 0.005247
44 bel_o\[0\]:2 cfg\[81\]:2 0.002624
45 bel_o\[0\]:2 cfg\[82\]:2 0.006934
46 bel_o\[0\]:2 cfg\[83\]:2 0.007402
47 bel_o\[0\]:2 cfg\[84\]:2 0.002624
48 bel_o\[0\]:2 cfg\[85\]:2 0.002624
49 bel_o\[0\]:2 cfg\[86\]:2 0.005247
50 bel_o\[0\]:2 cfg\[87\]:2 0.005247
51 bel_o\[0\]:2 cfg\[88\]:2 0.005247
52 bel_o\[0\]:2 cfg\[89\]:2 0.002624
53 bel_o\[0\]:2 cfg\[8\]:2 0.002624
54 bel_o\[0\]:2 cfg\[90\]:2 0.011369
55 bel_o\[0\]:2 cfg\[91\]:2 0.002624
56 bel_o\[0\]:2 cfg\[92\]:2 0.002624
57 bel_o\[0\]:2 cfg\[95\]:2 0.009862
58 bel_o\[0\]:2 cfg\[96\]:2 0.005247
59 bel_o\[0\]:2 cfg\[97\]:2 0.007871
60 bel_o\[0\]:2 cfg\[98\]:2 0.002624
61 bel_o\[0\]:2 cfg\[99\]:2 0.002624
62 bel_o\[0\]:2 cfg\[9\]:2 0.002624
63 bel_o\[0\]:2 clk:2 0.005247
64 bel_o\[0\]:2 e_in\[0\]:2 0.002624
65 bel_o\[0\]:2 e_in\[1\]:2 0.019071
66 bel_o\[0\]:2 e_in\[2\]:2 0.008867
67 bel_o\[0\]:2 e_in\[3\]:2 0.011491
68 bel_o\[0\]:2 e_out\[0\]:2 0.008060
69 bel_o\[0\]:2 e_out\[1\]:2 0.002624
70 bel_o\[0\]:2 e_out\[3\]:2 0.004477
71 bel_o\[0\]:2 g_slice_0__u_slice___00_:2 0.004477
72 bel_o\[0\]:2 g_slice_0__u_slice___08_:2 0.005247
73 bel_o\[0\]:2 g_slice_3__u_slice___05_:2 0.003620
74 bel_o\[0\]:2 lut_in\[0\]:2 0.007871
75 bel_o\[0\]:2 lut_in\[10\]:2 0.002624
76 bel_o\[0\]:2 lut_in\[11\]:2 0.010377
77 bel_o\[0\]:2 lut_in\[1\]:2 0.005247
78 bel_o\[0\]:2 lut_in\[2\]:2 0.002624
79 bel_o\[0\]:2 lut_in\[3\]:2 0.002624
80 bel_o\[0\]:2 lut_in\[4\]:2 0.005247
81 bel_o\[0\]:2 lut_in\[5\]:2 0.006244
82 bel_o\[0\]:2 lut_in\[6\]:2 0.006244
83 bel_o\[0\]:2 lut_in\[7\]:2 0.005247
84 bel_o\[0\]:2 lut_in\[8\]:2 0.003620
85 bel_o\[0\]:2 lut_in\[9\]:2 0.003620
86 bel_o\[0\]:2 n_in\[0\]:2 0.018117
87 bel_o\[0\]:2 n_in\[1\]:2 0.008867
88 bel_o\[0\]:2 n_in\[2\]:2 0.012487
89 bel_o\[0\]:2 n_in\[3\]:2 0.008867
90 bel_o\[0\]:2 n_out\[0\]:2 0.004477
91 bel_o\[0\]:2 n_out\[1\]:2 0.004477
92 bel_o\[0\]:2 n_out\[2\]:2 0.003672
93 bel_o\[0\]:2 n_out\[3\]:2 0.002624
94 bel_o\[0\]:2 s_in\[0\]:2 0.011491
95 bel_o\[0\]:2 s_in\[1\]:2 0.009864
96 bel_o\[0\]:2 s_in\[2\]:2 0.015925
97 bel_o\[0\]:2 s_in\[3\]:2 0.011312
98 bel_o\[0\]:2 s_out\[2\]:2 0.019251
99 bel_o\[0\]:2 s_out\[3\]:2 0.003137
100 bel_o\[0\]:2 u_sm___003_:2 0.013306
101 bel_o\[0\]:2 u_sm___005_:2 0.011982
102 bel_o\[0\]:2 u_sm___006_:2 0.015367
103 bel_o\[0\]:2 u_sm___009_:2 0.006934
104 bel_o\[0\]:2 u_sm___010_:2 0.016213
105 bel_o\[0\]:2 u_sm___012_:2 0.002624
106 bel_o\[0\]:2 u_sm___014_:2 0.013590
107 bel_o\[0\]:2 u_sm___015_:2 0.002624
108 bel_o\[0\]:2 u_sm___018_:2 0.014749
109 bel_o\[0\]:2 u_sm___023_:2 0.016210
110 bel_o\[0\]:2 u_sm___024_:2 0.006061
111 bel_o\[0\]:2 u_sm___027_:2 0.002624
112 bel_o\[0\]:2 u_sm___029_:2 0.004310
113 bel_o\[0\]:2 u_sm___030_:2 0.004819
114 bel_o\[0\]:2 u_sm___034_:2 0.007443
115 bel_o\[0\]:2 u_sm___035_:2 0.002624
116 bel_o\[0\]:2 u_sm___036_:2 0.003437
117 bel_o\[0\]:2 u_sm___038_:2 0.004310
118 bel_o\[0\]:2 u_sm___039_:2 0.002624
119 bel_o\[0\]:2 u_sm___045_:2 0.002624
120 bel_o\[0\]:2 u_sm___047_:2 0.002624
121 bel_o\[0\]:2 u_sm___051_:2 0.008995
122 bel_o\[0\]:2 u_sm___052_:2 0.003620
123 bel_o\[0\]:2 u_sm___053_:2 0.003137
124 bel_o\[0\]:2 u_sm___054_:2 0.008114
125 bel_o\[0\]:2 u_sm___057_:2 0.003038
126 bel_o\[0\]:2 u_sm___058_:2 0.002578
127 bel_o\[0\]:2 u_sm___059_:2 0.002624
128 bel_o\[0\]:2 u_sm___060_:2 0.005276
129 bel_o\[0\]:2 u_sm___061_:2 0.002624
130 bel_o\[0\]:2 u_sm___063_:2 0.002624
131 bel_o\[0\]:2 u_sm___064_:2 0.003437
132 bel_o\[0\]:2 w_in\[0\]:2 0.008867
133 bel_o\[0\]:2 w_in\[1\]:2 0.008867
134 bel_o\[0\]:2 w_in\[2\]:2 0.005247
135 bel_o\[0\]:2 w_in\[3\]:2 0.005247
136 bel_o\[0\]:2 w_out\[0\]:2 0.007100
*RES
1 bel_o\[0\]:1 bel_o\[0\]:2 562.232800
2 bel_o\[0\]:1 u_sm___073_:A 0.000000
3 bel_o\[0\]:1 u_sm___079_:A 0.000000
4 bel_o\[0\]:1 u_sm___084_:A 0.000000
5 bel_o\[0\]:1 u_sm___089_:A 0.000000
6 bel_o\[0\]:1 u_sm___094_:A 0.000000
7 bel_o\[0\]:1 u_sm___099_:A 0.000000
8 bel_o\[0\]:1 u_sm___104_:A 0.000000
9 bel_o\[0\]:1 u_sm___109_:A 0.000000
10 bel_o\[0\]:1 u_sm___114_:A 0.000000
11 bel_o\[0\]:1 u_sm___119_:A 0.000000
12 bel_o\[0\]:1 u_sm___163_:A 0.000000
13 bel_o\[0\]:1 u_sm___150_:A 0.000000
14 bel_o\[0\]:1 u_sm___139_:A 0.000000
15 bel_o\[0\]:1 u_sm___134_:A 0.000000
16 bel_o\[0\]:1 u_sm___129_:A 0.000000
17 bel_o\[0\]:1 u_sm___124_:A 0.000000
18 bel_o\[0\]:1 g_slice_0__u_slice___14_:X 0.000000
*END

*D_NET bel_o\[1\] 18.927827
*CONN
*I u_sm___077_:A2 B
*I u_sm___082_:A2 B
*I u_sm___087_:A2 B
*I u_sm___097_:A2 B
*I u_sm___102_:A2 B
*I u_sm___107_:A2 B
*I u_sm___117_:A2 B
*I u_sm___122_:A2 B
*I u_sm___127_:A2 B
*I u_sm___137_:A2 B
*I u_sm___161_:A2 B
*I u_sm___148_:A2 B
*I u_sm___132_:A1 B
*I u_sm___112_:A1 B
*I u_sm___092_:A1 B
*I u_sm___069_:A1 B
*I g_slice_1__u_slice___14_:X B
*CAP
1 bel_o\[1\]:2 18.054350
2 bel_o\[1\]:2 bel_o\[2\]:2 0.055775
3 bel_o\[1\]:2 bel_o\[3\]:2 0.029541
4 bel_o\[1\]:2 bel_sr\[0\]:2 0.007965
5 bel_o\[1\]:2 cfg\[100\]:2 0.002624
6 bel_o\[1\]:2 cfg\[101\]:2 0.002624
7 bel_o\[1\]:2 cfg\[102\]:2 0.005068
8 bel_o\[1\]:2 cfg\[103\]:2 0.003437
9 bel_o\[1\]:2 cfg\[104\]:2 0.006244
10 bel_o\[1\]:2 cfg\[105\]:2 0.002624
11 bel_o\[1\]:2 cfg\[106\]:2 0.002624
12 bel_o\[1\]:2 cfg\[107\]:2 0.006934
13 bel_o\[1\]:2 cfg\[108\]:2 0.002624
14 bel_o\[1\]:2 cfg\[109\]:2 0.002624
15 bel_o\[1\]:2 cfg\[10\]:2 0.007692
16 bel_o\[1\]:2 cfg\[110\]:2 0.007692
17 bel_o\[1\]:2 cfg\[111\]:2 0.003620
18 bel_o\[1\]:2 cfg\[112\]:2 0.008867
19 bel_o\[1\]:2 cfg\[113\]:2 0.006934
20 bel_o\[1\]:2 cfg\[114\]:2 0.003620
21 bel_o\[1\]:2 cfg\[115\]:2 0.007930
22 bel_o\[1\]:2 cfg\[12\]:2 0.002624
23 bel_o\[1\]:2 cfg\[13\]:2 0.009378
24 bel_o\[1\]:2 cfg\[14\]:2 0.000827
25 bel_o\[1\]:2 cfg\[156\]:2 0.002624
26 bel_o\[1\]:2 cfg\[157\]:2 0.002624
27 bel_o\[1\]:2 cfg\[15\]:2 0.007240
28 bel_o\[1\]:2 cfg\[32\]:2 0.004310
29 bel_o\[1\]:2 cfg\[4\]:2 0.005247
30 bel_o\[1\]:2 cfg\[51\]:2 0.012308
31 bel_o\[1\]:2 cfg\[52\]:2 0.006244
32 bel_o\[1\]:2 cfg\[67\]:2 0.007777
33 bel_o\[1\]:2 cfg\[68\]:2 0.002624
34 bel_o\[1\]:2 cfg\[69\]:2 0.003620
35 bel_o\[1\]:2 cfg\[6\]:2 0.006934
36 bel_o\[1\]:2 cfg\[70\]:2 0.002624
37 bel_o\[1\]:2 cfg\[71\]:2 0.008685
38 bel_o\[1\]:2 cfg\[72\]:2 0.002624
39 bel_o\[1\]:2 cfg\[74\]:2 0.005247
40 bel_o\[1\]:2 cfg\[75\]:2 0.005247
41 bel_o\[1\]:2 cfg\[76\]:2 0.011037
42 bel_o\[1\]:2 cfg\[77\]:2 0.006994
43 bel_o\[1\]:2 cfg\[78\]:2 0.002624
44 bel_o\[1\]:2 cfg\[79\]:2 0.002624
45 bel_o\[1\]:2 cfg\[7\]:2 0.009558
46 bel_o\[1\]:2 cfg\[83\]:2 0.002624
47 bel_o\[1\]:2 cfg\[85\]:2 0.002624
48 bel_o\[1\]:2 cfg\[88\]:2 0.003620
49 bel_o\[1\]:2 cfg\[8\]:2 0.002624
50 bel_o\[1\]:2 cfg\[91\]:2 0.002624
51 bel_o\[1\]:2 cfg\[92\]:2 0.002624
52 bel_o\[1\]:2 cfg\[95\]:2 0.002624
53 bel_o\[1\]:2 cfg\[96\]:2 0.002624
54 bel_o\[1\]:2 cfg\[97\]:2 0.025206
55 bel_o\[1\]:2 cfg\[98\]:2 0.020861
56 bel_o\[1\]:2 cfg\[99\]:2 0.009864
57 bel_o\[1\]:2 cfg\[9\]:2 0.006244
58 bel_o\[1\]:2 clk:2 0.008867
59 bel_o\[1\]:2 clknet_1_0__leaf_clk:2 0.002624
60 bel_o\[1\]:2 e_in\[0\]:2 0.002624
61 bel_o\[1\]:2 e_in\[1\]:2 0.011491
62 bel_o\[1\]:2 e_in\[2\]:2 0.015925
63 bel_o\[1\]:2 e_in\[3\]:2 0.012487
64 bel_o\[1\]:2 e_out\[1\]:2 0.005247
65 bel_o\[1\]:2 e_out\[3\]:2 0.006244
66 bel_o\[1\]:2 g_slice_0__u_slice___05_:2 0.002624
67 bel_o\[1\]:2 g_slice_1__u_slice___00_:2 0.004477
68 bel_o\[1\]:2 g_slice_1__u_slice___05_:2 0.006155
69 bel_o\[1\]:2 g_slice_1__u_slice___07_:2 0.002798
70 bel_o\[1\]:2 g_slice_1__u_slice___08_:2 0.005276
71 bel_o\[1\]:2 g_slice_3__u_slice___05_:2 0.006338
72 bel_o\[1\]:2 lut_in\[0\]:2 0.017457
73 bel_o\[1\]:2 lut_in\[10\]:2 0.018440
74 bel_o\[1\]:2 lut_in\[11\]:2 0.011312
75 bel_o\[1\]:2 lut_in\[1\]:2 0.002624
76 bel_o\[1\]:2 lut_in\[2\]:2 0.002624
77 bel_o\[1\]:2 lut_in\[3\]:2 0.002624
78 bel_o\[1\]:2 lut_in\[4\]:2 0.005247
79 bel_o\[1\]:2 lut_in\[5\]:2 0.006244
80 bel_o\[1\]:2 lut_in\[6\]:2 0.012159
81 bel_o\[1\]:2 lut_in\[7\]:2 0.005247
82 bel_o\[1\]:2 lut_in\[8\]:2 0.009864
83 bel_o\[1\]:2 lut_in\[9\]:2 0.003620
84 bel_o\[1\]:2 n_in\[0\]:2 0.019836
85 bel_o\[1\]:2 n_in\[1\]:2 0.007871
86 bel_o\[1\]:2 n_in\[2\]:2 0.027613
87 bel_o\[1\]:2 n_in\[3\]:2 0.017121
88 bel_o\[1\]:2 n_out\[2\]:2 0.004310
89 bel_o\[1\]:2 n_out\[3\]:2 0.003620
90 bel_o\[1\]:2 s_in\[0\]:2 0.008867
91 bel_o\[1\]:2 s_in\[1\]:2 0.009864
92 bel_o\[1\]:2 s_in\[2\]:2 0.011491
93 bel_o\[1\]:2 s_in\[3\]:2 0.016107
94 bel_o\[1\]:2 s_out\[2\]:2 0.002624
95 bel_o\[1\]:2 u_sm___003_:2 0.002624
96 bel_o\[1\]:2 u_sm___006_:2 0.007085
97 bel_o\[1\]:2 u_sm___008_:2 0.002624
98 bel_o\[1\]:2 u_sm___009_:2 0.002624
99 bel_o\[1\]:2 u_sm___010_:2 0.002624
100 bel_o\[1\]:2 u_sm___011_:2 0.003186
101 bel_o\[1\]:2 u_sm___012_:2 0.005276
102 bel_o\[1\]:2 u_sm___016_:2 0.002624
103 bel_o\[1\]:2 u_sm___020_:2 0.005276
104 bel_o\[1\]:2 u_sm___021_:2 0.003620
105 bel_o\[1\]:2 u_sm___029_:2 0.004310
106 bel_o\[1\]:2 u_sm___030_:2 0.005247
107 bel_o\[1\]:2 u_sm___037_:2 0.005247
108 bel_o\[1\]:2 u_sm___038_:2 0.005247
109 bel_o\[1\]:2 u_sm___039_:2 0.002624
110 bel_o\[1\]:2 u_sm___045_:2 0.002624
111 bel_o\[1\]:2 u_sm___046_:2 0.004461
112 bel_o\[1\]:2 u_sm___047_:2 0.002624
113 bel_o\[1\]:2 u_sm___050_:2 0.002624
114 bel_o\[1\]:2 u_sm___051_:2 0.002624
115 bel_o\[1\]:2 u_sm___052_:2 0.007900
116 bel_o\[1\]:2 u_sm___059_:2 0.002624
117 bel_o\[1\]:2 u_sm___061_:2 0.003357
118 bel_o\[1\]:2 u_sm___062_:2 0.002624
119 bel_o\[1\]:2 u_sm___063_:2 0.015254
120 bel_o\[1\]:2 u_sm___065_:2 0.002624
121 bel_o\[1\]:2 u_sm___066_:2 0.002624
122 bel_o\[1\]:2 u_sm___067_:2 0.003620
123 bel_o\[1\]:2 w_in\[0\]:2 0.017488
124 bel_o\[1\]:2 w_in\[1\]:2 0.006244
125 bel_o\[1\]:2 w_in\[2\]:2 0.015842
126 bel_o\[1\]:2 w_in\[3\]:2 0.005247
*RES
1 bel_o\[1\]:1 bel_o\[1\]:2 916.892200
2 bel_o\[1\]:1 u_sm___077_:A2 0.000000
3 bel_o\[1\]:1 u_sm___082_:A2 0.000000
4 bel_o\[1\]:1 u_sm___087_:A2 0.000000
5 bel_o\[1\]:1 u_sm___097_:A2 0.000000
6 bel_o\[1\]:1 u_sm___102_:A2 0.000000
7 bel_o\[1\]:1 u_sm___107_:A2 0.000000
8 bel_o\[1\]:1 u_sm___117_:A2 0.000000
9 bel_o\[1\]:1 u_sm___122_:A2 0.000000
10 bel_o\[1\]:1 u_sm___127_:A2 0.000000
11 bel_o\[1\]:1 u_sm___137_:A2 0.000000
12 bel_o\[1\]:1 u_sm___161_:A2 0.000000
13 bel_o\[1\]:1 u_sm___148_:A2 0.000000
14 bel_o\[1\]:1 u_sm___132_:A1 0.000000
15 bel_o\[1\]:1 u_sm___112_:A1 0.000000
16 bel_o\[1\]:1 u_sm___092_:A1 0.000000
17 bel_o\[1\]:1 u_sm___069_:A1 0.000000
18 bel_o\[1\]:1 g_slice_1__u_slice___14_:X 0.000000
*END

*D_NET bel_o\[2\] 21.194946
*CONN
*I u_sm___069_:A3 B
*I u_sm___077_:A3 B
*I u_sm___082_:A3 B
*I u_sm___087_:A3 B
*I u_sm___092_:A3 B
*I u_sm___097_:A3 B
*I u_sm___102_:A3 B
*I u_sm___107_:A3 B
*I u_sm___112_:A3 B
*I u_sm___149_:A1 B
*I u_sm___161_:A3 B
*I u_sm___137_:A3 B
*I u_sm___132_:A3 B
*I u_sm___127_:A3 B
*I u_sm___122_:A3 B
*I u_sm___117_:A3 B
*I g_slice_2__u_slice___14_:X B
*CAP
1 bel_o\[2\]:2 20.295324
2 bel_o\[2\]:2 bel_o\[3\]:2 0.039387
3 bel_o\[2\]:2 bel_sr\[0\]:2 0.002624
4 bel_o\[2\]:2 cfg\[100\]:2 0.005247
5 bel_o\[2\]:2 cfg\[101\]:2 0.002624
6 bel_o\[2\]:2 cfg\[102\]:2 0.003137
7 bel_o\[2\]:2 cfg\[104\]:2 0.006244
8 bel_o\[2\]:2 cfg\[105\]:2 0.002624
9 bel_o\[2\]:2 cfg\[106\]:2 0.006934
10 bel_o\[2\]:2 cfg\[107\]:2 0.002624
11 bel_o\[2\]:2 cfg\[108\]:2 0.002624
12 bel_o\[2\]:2 cfg\[109\]:2 0.005901
13 bel_o\[2\]:2 cfg\[10\]:2 0.003620
14 bel_o\[2\]:2 cfg\[110\]:2 0.009378
15 bel_o\[2\]:2 cfg\[111\]:2 0.003620
16 bel_o\[2\]:2 cfg\[112\]:2 0.008867
17 bel_o\[2\]:2 cfg\[113\]:2 0.002624
18 bel_o\[2\]:2 cfg\[114\]:2 0.002624
19 bel_o\[2\]:2 cfg\[115\]:2 0.010632
20 bel_o\[2\]:2 cfg\[11\]:2 0.003620
21 bel_o\[2\]:2 cfg\[12\]:2 0.002624
22 bel_o\[2\]:2 cfg\[130\]:2 0.002624
23 bel_o\[2\]:2 cfg\[131\]:2 0.002624
24 bel_o\[2\]:2 cfg\[13\]:2 0.003620
25 bel_o\[2\]:2 cfg\[14\]:2 0.011183
26 bel_o\[2\]:2 cfg\[156\]:2 0.006934
27 bel_o\[2\]:2 cfg\[157\]:2 0.002624
28 bel_o\[2\]:2 cfg\[15\]:2 0.010860
29 bel_o\[2\]:2 cfg\[1\]:2 0.002624
30 bel_o\[2\]:2 cfg\[2\]:2 0.003620
31 bel_o\[2\]:2 cfg\[3\]:2 0.002624
32 bel_o\[2\]:2 cfg\[4\]:2 0.002624
33 bel_o\[2\]:2 cfg\[51\]:2 0.019807
34 bel_o\[2\]:2 cfg\[52\]:2 0.018661
35 bel_o\[2\]:2 cfg\[5\]:2 0.004310
36 bel_o\[2\]:2 cfg\[68\]:2 0.009839
37 bel_o\[2\]:2 cfg\[70\]:2 0.002624
38 bel_o\[2\]:2 cfg\[71\]:2 0.002624
39 bel_o\[2\]:2 cfg\[72\]:2 0.018319
40 bel_o\[2\]:2 cfg\[73\]:2 0.006934
41 bel_o\[2\]:2 cfg\[74\]:2 0.018082
42 bel_o\[2\]:2 cfg\[75\]:2 0.005247
43 bel_o\[2\]:2 cfg\[76\]:2 0.008867
44 bel_o\[2\]:2 cfg\[77\]:2 0.003620
45 bel_o\[2\]:2 cfg\[78\]:2 0.003620
46 bel_o\[2\]:2 cfg\[79\]:2 0.005068
47 bel_o\[2\]:2 cfg\[7\]:2 0.006244
48 bel_o\[2\]:2 cfg\[80\]:2 0.006244
49 bel_o\[2\]:2 cfg\[83\]:2 0.005501
50 bel_o\[2\]:2 cfg\[85\]:2 0.002624
51 bel_o\[2\]:2 cfg\[86\]:2 0.010538
52 bel_o\[2\]:2 cfg\[88\]:2 0.003206
53 bel_o\[2\]:2 cfg\[8\]:2 0.002624
54 bel_o\[2\]:2 cfg\[91\]:2 0.002624
55 bel_o\[2\]:2 cfg\[92\]:2 0.002624
56 bel_o\[2\]:2 cfg\[94\]:2 0.005901
57 bel_o\[2\]:2 cfg\[95\]:2 0.012830
58 bel_o\[2\]:2 cfg\[96\]:2 0.005247
59 bel_o\[2\]:2 cfg\[97\]:2 0.005247
60 bel_o\[2\]:2 cfg\[98\]:2 0.014243
61 bel_o\[2\]:2 cfg\[99\]:2 0.008867
62 bel_o\[2\]:2 cfg\[9\]:2 0.007871
63 bel_o\[2\]:2 clk:2 0.005247
64 bel_o\[2\]:2 clknet_0_clk:2 0.002624
65 bel_o\[2\]:2 clknet_1_0__leaf_clk:2 0.002624
66 bel_o\[2\]:2 e_in\[0\]:2 0.021561
67 bel_o\[2\]:2 e_in\[1\]:2 0.011491
68 bel_o\[2\]:2 e_in\[2\]:2 0.014115
69 bel_o\[2\]:2 e_in\[3\]:2 0.024340
70 bel_o\[2\]:2 e_out\[1\]:2 0.002624
71 bel_o\[2\]:2 e_out\[3\]:2 0.006244
72 bel_o\[2\]:2 g_slice_0__u_slice___05_:2 0.002624
73 bel_o\[2\]:2 g_slice_3__u_slice___05_:2 0.003620
74 bel_o\[2\]:2 g_slice_3__u_slice__ff_q:2 0.002624
75 bel_o\[2\]:2 lut_in\[0\]:2 0.013213
76 bel_o\[2\]:2 lut_in\[10\]:2 0.012910
77 bel_o\[2\]:2 lut_in\[11\]:2 0.008688
78 bel_o\[2\]:2 lut_in\[1\]:2 0.005247
79 bel_o\[2\]:2 lut_in\[2\]:2 0.002624
80 bel_o\[2\]:2 lut_in\[3\]:2 0.002624
81 bel_o\[2\]:2 lut_in\[4\]:2 0.005247
82 bel_o\[2\]:2 lut_in\[5\]:2 0.006244
83 bel_o\[2\]:2 lut_in\[6\]:2 0.009521
84 bel_o\[2\]:2 lut_in\[7\]:2 0.002624
85 bel_o\[2\]:2 lut_in\[8\]:2 0.009864
86 bel_o\[2\]:2 lut_in\[9\]:2 0.008867
87 bel_o\[2\]:2 n_in\[0\]:2 0.014932
88 bel_o\[2\]:2 n_in\[1\]:2 0.014805
89 bel_o\[2\]:2 n_in\[2\]:2 0.022691
90 bel_o\[2\]:2 n_in\[3\]:2 0.014115
91 bel_o\[2\]:2 n_out\[0\]:2 0.002624
92 bel_o\[2\]:2 n_out\[1\]:2 0.002624
93 bel_o\[2\]:2 n_out\[2\]:2 0.008604
94 bel_o\[2\]:2 n_out\[3\]:2 0.003620
95 bel_o\[2\]:2 s_in\[0\]:2 0.017042
96 bel_o\[2\]:2 s_in\[1\]:2 0.013541
97 bel_o\[2\]:2 s_in\[2\]:2 0.011491
98 bel_o\[2\]:2 s_in\[3\]:2 0.021917
99 bel_o\[2\]:2 u_sm___003_:2 0.005247
100 bel_o\[2\]:2 u_sm___005_:2 0.010290
101 bel_o\[2\]:2 u_sm___008_:2 0.002624
102 bel_o\[2\]:2 u_sm___009_:2 0.003620
103 bel_o\[2\]:2 u_sm___010_:2 0.003620
104 bel_o\[2\]:2 u_sm___011_:2 0.007563
105 bel_o\[2\]:2 u_sm___012_:2 0.002718
106 bel_o\[2\]:2 u_sm___016_:2 0.002624
107 bel_o\[2\]:2 u_sm___020_:2 0.002718
108 bel_o\[2\]:2 u_sm___021_:2 0.002624
109 bel_o\[2\]:2 u_sm___029_:2 0.002624
110 bel_o\[2\]:2 u_sm___030_:2 0.005247
111 bel_o\[2\]:2 u_sm___035_:2 0.008995
112 bel_o\[2\]:2 u_sm___039_:2 0.002624
113 bel_o\[2\]:2 u_sm___045_:2 0.002624
114 bel_o\[2\]:2 u_sm___047_:2 0.002624
115 bel_o\[2\]:2 u_sm___050_:2 0.004310
116 bel_o\[2\]:2 u_sm___051_:2 0.002624
117 bel_o\[2\]:2 u_sm___056_:2 0.012462
118 bel_o\[2\]:2 u_sm___061_:2 0.002624
119 bel_o\[2\]:2 u_sm___063_:2 0.002624
120 bel_o\[2\]:2 u_sm___064_:2 0.007900
121 bel_o\[2\]:2 w_in\[0\]:2 0.012518
122 bel_o\[2\]:2 w_in\[1\]:2 0.012487
123 bel_o\[2\]:2 w_in\[2\]:2 0.013868
124 bel_o\[2\]:2 w_in\[3\]:2 0.012181
125 bel_o\[2\]:2 w_out\[3\]:2 0.002624
*RES
1 bel_o\[2\]:1 bel_o\[2\]:2 1016.847100
2 bel_o\[2\]:1 u_sm___069_:A3 0.000000
3 bel_o\[2\]:1 u_sm___077_:A3 0.000000
4 bel_o\[2\]:1 u_sm___082_:A3 0.000000
5 bel_o\[2\]:1 u_sm___087_:A3 0.000000
6 bel_o\[2\]:1 u_sm___092_:A3 0.000000
7 bel_o\[2\]:1 u_sm___097_:A3 0.000000
8 bel_o\[2\]:1 u_sm___102_:A3 0.000000
9 bel_o\[2\]:1 u_sm___107_:A3 0.000000
10 bel_o\[2\]:1 u_sm___112_:A3 0.000000
11 bel_o\[2\]:1 u_sm___149_:A1 0.000000
12 bel_o\[2\]:1 u_sm___161_:A3 0.000000
13 bel_o\[2\]:1 u_sm___137_:A3 0.000000
14 bel_o\[2\]:1 u_sm___132_:A3 0.000000
15 bel_o\[2\]:1 u_sm___127_:A3 0.000000
16 bel_o\[2\]:1 u_sm___122_:A3 0.000000
17 bel_o\[2\]:1 u_sm___117_:A3 0.000000
18 bel_o\[2\]:1 g_slice_2__u_slice___14_:X 0.000000
*END

*D_NET bel_o\[3\] 19.828270
*CONN
*I u_sm___071_:A1 B
*I u_sm___078_:A1 B
*I u_sm___083_:A1 B
*I u_sm___088_:A1 B
*I u_sm___093_:A1 B
*I u_sm___098_:A1 B
*I u_sm___103_:A1 B
*I u_sm___108_:A1 B
*I u_sm___113_:A1 B
*I u_sm___118_:A1 B
*I u_sm___162_:A1 B
*I u_sm___148_:A3 B
*I u_sm___138_:A1 B
*I u_sm___133_:A1 B
*I u_sm___128_:A1 B
*I u_sm___123_:A1 B
*I g_slice_3__u_slice___14_:X B
*CAP
1 bel_o\[3\]:2 18.789742
2 bel_o\[3\]:2 cfg\[100\]:2 0.005068
3 bel_o\[3\]:2 cfg\[101\]:2 0.014149
4 bel_o\[3\]:2 cfg\[102\]:2 0.003620
5 bel_o\[3\]:2 cfg\[103\]:2 0.005247
6 bel_o\[3\]:2 cfg\[104\]:2 0.012241
7 bel_o\[3\]:2 cfg\[105\]:2 0.002624
8 bel_o\[3\]:2 cfg\[106\]:2 0.002624
9 bel_o\[3\]:2 cfg\[107\]:2 0.007871
10 bel_o\[3\]:2 cfg\[108\]:2 0.002624
11 bel_o\[3\]:2 cfg\[109\]:2 0.006840
12 bel_o\[3\]:2 cfg\[10\]:2 0.006244
13 bel_o\[3\]:2 cfg\[110\]:2 0.008867
14 bel_o\[3\]:2 cfg\[111\]:2 0.003620
15 bel_o\[3\]:2 cfg\[112\]:2 0.011600
16 bel_o\[3\]:2 cfg\[113\]:2 0.005247
17 bel_o\[3\]:2 cfg\[114\]:2 0.003620
18 bel_o\[3\]:2 cfg\[115\]:2 0.011600
19 bel_o\[3\]:2 cfg\[11\]:2 0.002624
20 bel_o\[3\]:2 cfg\[12\]:2 0.002624
21 bel_o\[3\]:2 cfg\[13\]:2 0.010479
22 bel_o\[3\]:2 cfg\[14\]:2 0.011183
23 bel_o\[3\]:2 cfg\[156\]:2 0.004310
24 bel_o\[3\]:2 cfg\[15\]:2 0.011183
25 bel_o\[3\]:2 cfg\[4\]:2 0.002624
26 bel_o\[3\]:2 cfg\[51\]:2 0.013864
27 bel_o\[3\]:2 cfg\[52\]:2 0.011183
28 bel_o\[3\]:2 cfg\[5\]:2 0.027436
29 bel_o\[3\]:2 cfg\[68\]:2 0.002624
30 bel_o\[3\]:2 cfg\[69\]:2 0.003620
31 bel_o\[3\]:2 cfg\[70\]:2 0.003198
32 bel_o\[3\]:2 cfg\[71\]:2 0.007692
33 bel_o\[3\]:2 cfg\[72\]:2 0.005650
34 bel_o\[3\]:2 cfg\[73\]:2 0.010880
35 bel_o\[3\]:2 cfg\[74\]:2 0.012615
36 bel_o\[3\]:2 cfg\[75\]:2 0.003620
37 bel_o\[3\]:2 cfg\[76\]:2 0.014223
38 bel_o\[3\]:2 cfg\[77\]:2 0.006244
39 bel_o\[3\]:2 cfg\[78\]:2 0.002624
40 bel_o\[3\]:2 cfg\[79\]:2 0.006295
41 bel_o\[3\]:2 cfg\[7\]:2 0.011491
42 bel_o\[3\]:2 cfg\[80\]:2 0.002624
43 bel_o\[3\]:2 cfg\[82\]:2 0.007980
44 bel_o\[3\]:2 cfg\[83\]:2 0.002624
45 bel_o\[3\]:2 cfg\[85\]:2 0.005247
46 bel_o\[3\]:2 cfg\[86\]:2 0.006887
47 bel_o\[3\]:2 cfg\[87\]:2 0.002624
48 bel_o\[3\]:2 cfg\[88\]:2 0.006244
49 bel_o\[3\]:2 cfg\[89\]:2 0.005247
50 bel_o\[3\]:2 cfg\[8\]:2 0.005247
51 bel_o\[3\]:2 cfg\[90\]:2 0.009839
52 bel_o\[3\]:2 cfg\[91\]:2 0.002624
53 bel_o\[3\]:2 cfg\[95\]:2 0.000343
54 bel_o\[3\]:2 cfg\[97\]:2 0.002624
55 bel_o\[3\]:2 cfg\[98\]:2 0.011619
56 bel_o\[3\]:2 cfg\[99\]:2 0.005247
57 bel_o\[3\]:2 cfg\[9\]:2 0.006934
58 bel_o\[3\]:2 clk:2 0.002624
59 bel_o\[3\]:2 e_in\[0\]:2 0.006244
60 bel_o\[3\]:2 e_in\[1\]:2 0.036511
61 bel_o\[3\]:2 e_in\[2\]:2 0.002624
62 bel_o\[3\]:2 e_in\[3\]:2 0.025699
63 bel_o\[3\]:2 g_slice_0__u_slice___01_:2 0.004956
64 bel_o\[3\]:2 g_slice_0__u_slice___05_:2 0.010232
65 bel_o\[3\]:2 g_slice_3__u_slice___05_:2 0.013301
66 bel_o\[3\]:2 g_slice_3__u_slice___06_:2 0.002624
67 bel_o\[3\]:2 g_slice_3__u_slice___07_:2 0.002624
68 bel_o\[3\]:2 g_slice_3__u_slice___08_:2 0.005276
69 bel_o\[3\]:2 g_slice_3__u_slice__ff_q:2 0.002624
70 bel_o\[3\]:2 lut_in\[0\]:2 0.007871
71 bel_o\[3\]:2 lut_in\[10\]:2 0.003620
72 bel_o\[3\]:2 lut_in\[11\]:2 0.007240
73 bel_o\[3\]:2 lut_in\[1\]:2 0.013306
74 bel_o\[3\]:2 lut_in\[2\]:2 0.002624
75 bel_o\[3\]:2 lut_in\[3\]:2 0.002624
76 bel_o\[3\]:2 lut_in\[4\]:2 0.010443
77 bel_o\[3\]:2 lut_in\[5\]:2 0.007240
78 bel_o\[3\]:2 lut_in\[6\]:2 0.006244
79 bel_o\[3\]:2 lut_in\[7\]:2 0.002624
80 bel_o\[3\]:2 lut_in\[8\]:2 0.007240
81 bel_o\[3\]:2 lut_in\[9\]:2 0.003620
82 bel_o\[3\]:2 n_in\[0\]:2 0.028177
83 bel_o\[3\]:2 n_in\[1\]:2 0.012755
84 bel_o\[3\]:2 n_in\[2\]:2 0.013806
85 bel_o\[3\]:2 n_in\[3\]:2 0.010495
86 bel_o\[3\]:2 n_out\[2\]:2 0.007563
87 bel_o\[3\]:2 n_out\[3\]:2 0.006806
88 bel_o\[3\]:2 s_in\[0\]:2 0.025101
89 bel_o\[3\]:2 s_in\[1\]:2 0.014932
90 bel_o\[3\]:2 s_in\[2\]:2 0.006244
91 bel_o\[3\]:2 s_in\[3\]:2 0.012462
92 bel_o\[3\]:2 u_sm___003_:2 0.003997
93 bel_o\[3\]:2 u_sm___009_:2 0.008933
94 bel_o\[3\]:2 u_sm___010_:2 0.002624
95 bel_o\[3\]:2 u_sm___011_:2 0.019342
96 bel_o\[3\]:2 u_sm___012_:2 0.002624
97 bel_o\[3\]:2 u_sm___013_:2 0.003997
98 bel_o\[3\]:2 u_sm___014_:2 0.004819
99 bel_o\[3\]:2 u_sm___016_:2 0.002624
100 bel_o\[3\]:2 u_sm___017_:2 0.010298
101 bel_o\[3\]:2 u_sm___023_:2 0.002624
102 bel_o\[3\]:2 u_sm___024_:2 0.002624
103 bel_o\[3\]:2 u_sm___025_:2 0.019293
104 bel_o\[3\]:2 u_sm___026_:2 0.014149
105 bel_o\[3\]:2 u_sm___027_:2 0.007402
106 bel_o\[3\]:2 u_sm___029_:2 0.007195
107 bel_o\[3\]:2 u_sm___033_:2 0.010720
108 bel_o\[3\]:2 u_sm___035_:2 0.004842
109 bel_o\[3\]:2 u_sm___037_:2 0.013110
110 bel_o\[3\]:2 u_sm___041_:2 0.009818
111 bel_o\[3\]:2 u_sm___045_:2 0.006621
112 bel_o\[3\]:2 u_sm___046_:2 0.002624
113 bel_o\[3\]:2 u_sm___047_:2 0.002624
114 bel_o\[3\]:2 u_sm___050_:2 0.002624
115 bel_o\[3\]:2 u_sm___051_:2 0.002624
116 bel_o\[3\]:2 u_sm___052_:2 0.002624
117 bel_o\[3\]:2 u_sm___053_:2 0.010298
118 bel_o\[3\]:2 u_sm___054_:2 0.010015
119 bel_o\[3\]:2 u_sm___057_:2 0.006621
120 bel_o\[3\]:2 u_sm___058_:2 0.013903
121 bel_o\[3\]:2 u_sm___059_:2 0.002624
122 bel_o\[3\]:2 u_sm___060_:2 0.004397
123 bel_o\[3\]:2 u_sm___061_:2 0.007930
124 bel_o\[3\]:2 u_sm___063_:2 0.003620
125 bel_o\[3\]:2 u_sm___066_:2 0.006244
126 bel_o\[3\]:2 u_sm___067_:2 0.003620
127 bel_o\[3\]:2 w_in\[0\]:2 0.017613
128 bel_o\[3\]:2 w_in\[1\]:2 0.032380
129 bel_o\[3\]:2 w_in\[2\]:2 0.016796
130 bel_o\[3\]:2 w_in\[3\]:2 0.017369
*RES
1 bel_o\[3\]:1 bel_o\[3\]:2 1596.586100
2 bel_o\[3\]:1 u_sm___071_:A1 0.000000
3 bel_o\[3\]:1 u_sm___078_:A1 0.000000
4 bel_o\[3\]:1 u_sm___083_:A1 0.000000
5 bel_o\[3\]:1 u_sm___088_:A1 0.000000
6 bel_o\[3\]:1 u_sm___093_:A1 0.000000
7 bel_o\[3\]:1 u_sm___098_:A1 0.000000
8 bel_o\[3\]:1 u_sm___103_:A1 0.000000
9 bel_o\[3\]:1 u_sm___108_:A1 0.000000
10 bel_o\[3\]:1 u_sm___113_:A1 0.000000
11 bel_o\[3\]:1 u_sm___118_:A1 0.000000
12 bel_o\[3\]:1 u_sm___162_:A1 0.000000
13 bel_o\[3\]:1 u_sm___148_:A3 0.000000
14 bel_o\[3\]:1 u_sm___138_:A1 0.000000
15 bel_o\[3\]:1 u_sm___133_:A1 0.000000
16 bel_o\[3\]:1 u_sm___128_:A1 0.000000
17 bel_o\[3\]:1 u_sm___123_:A1 0.000000
18 bel_o\[3\]:1 g_slice_3__u_slice___14_:X 0.000000
*END

*D_NET bel_sr\[0\] 7.048156
*CONN
*I u_sm___168_:X B
*I g_slice_3__u_slice___17_:A B
*I g_slice_2__u_slice___17_:A B
*I g_slice_1__u_slice___17_:A B
*I g_slice_0__u_slice___17_:A B
*CAP
1 bel_sr\[0\]:2 6.791953
2 bel_sr\[0\]:2 cfg\[100\]:2 0.007980
3 bel_sr\[0\]:2 cfg\[149\]:2 0.002718
4 bel_sr\[0\]:2 cfg\[150\]:2 0.003620
5 bel_sr\[0\]:2 cfg\[151\]:2 0.003620
6 bel_sr\[0\]:2 cfg\[152\]:2 0.003620
7 bel_sr\[0\]:2 cfg\[153\]:2 0.003620
8 bel_sr\[0\]:2 cfg\[154\]:2 0.003620
9 bel_sr\[0\]:2 cfg\[155\]:2 0.003620
10 bel_sr\[0\]:2 cfg\[156\]:2 0.003620
11 bel_sr\[0\]:2 cfg\[157\]:2 0.003620
12 bel_sr\[0\]:2 cfg\[15\]:2 0.003620
13 bel_sr\[0\]:2 cfg\[16\]:2 0.010860
14 bel_sr\[0\]:2 cfg\[17\]:2 0.004310
15 bel_sr\[0\]:2 cfg\[18\]:2 0.003620
16 bel_sr\[0\]:2 cfg\[19\]:2 0.003620
17 bel_sr\[0\]:2 cfg\[1\]:2 0.007240
18 bel_sr\[0\]:2 cfg\[20\]:2 0.002624
19 bel_sr\[0\]:2 cfg\[21\]:2 0.004310
20 bel_sr\[0\]:2 cfg\[22\]:2 0.002624
21 bel_sr\[0\]:2 cfg\[23\]:2 0.003620
22 bel_sr\[0\]:2 cfg\[24\]:2 0.003620
23 bel_sr\[0\]:2 cfg\[27\]:2 0.003620
24 bel_sr\[0\]:2 cfg\[29\]:2 0.004310
25 bel_sr\[0\]:2 cfg\[2\]:2 0.003620
26 bel_sr\[0\]:2 cfg\[30\]:2 0.002624
27 bel_sr\[0\]:2 cfg\[31\]:2 0.002624
28 bel_sr\[0\]:2 cfg\[32\]:2 0.009864
29 bel_sr\[0\]:2 cfg\[3\]:2 0.002624
30 bel_sr\[0\]:2 cfg\[51\]:2 0.003620
31 bel_sr\[0\]:2 cfg\[52\]:2 0.002624
32 bel_sr\[0\]:2 cfg\[98\]:2 0.002624
33 bel_sr\[0\]:2 cfg\[9\]:2 0.002624
34 bel_sr\[0\]:2 clk:2 0.002624
35 bel_sr\[0\]:2 e_in\[2\]:2 0.002624
36 bel_sr\[0\]:2 g_slice_0__u_slice___00_:2 0.002624
37 bel_sr\[0\]:2 g_slice_0__u_slice___05_:2 0.002624
38 bel_sr\[0\]:2 g_slice_0__u_slice___06_:2 0.004876
39 bel_sr\[0\]:2 g_slice_0__u_slice___07_:2 0.002624
40 bel_sr\[0\]:2 g_slice_0__u_slice___08_:2 0.004819
41 bel_sr\[0\]:2 g_slice_0__u_slice__ff_q:2 0.002624
42 bel_sr\[0\]:2 g_slice_1__u_slice___01_:2 0.004873
43 bel_sr\[0\]:2 g_slice_1__u_slice___03_:2 0.008688
44 bel_sr\[0\]:2 g_slice_1__u_slice___04_:2 0.006244
45 bel_sr\[0\]:2 g_slice_1__u_slice___05_:2 0.002624
46 bel_sr\[0\]:2 g_slice_1__u_slice___06_:2 0.002624
47 bel_sr\[0\]:2 g_slice_1__u_slice___07_:2 0.005247
48 bel_sr\[0\]:2 g_slice_3__u_slice__ff_q:2 0.009839
49 bel_sr\[0\]:2 lut_in\[10\]:2 0.003620
50 bel_sr\[0\]:2 lut_in\[11\]:2 0.007240
51 bel_sr\[0\]:2 lut_in\[4\]:2 0.006244
52 bel_sr\[0\]:2 lut_in\[5\]:2 0.006244
53 bel_sr\[0\]:2 lut_in\[6\]:2 0.002624
54 bel_sr\[0\]:2 lut_in\[7\]:2 0.002624
55 bel_sr\[0\]:2 lut_in\[8\]:2 0.002624
56 bel_sr\[0\]:2 lut_in\[9\]:2 0.002624
57 bel_sr\[0\]:2 n_in\[0\]:2 0.004310
58 bel_sr\[0\]:2 n_in\[2\]:2 0.002624
59 bel_sr\[0\]:2 s_out\[2\]:2 0.002624
60 bel_sr\[0\]:2 u_sm___036_:2 0.002624
61 bel_sr\[0\]:2 u_sm___037_:2 0.005661
62 bel_sr\[0\]:2 u_sm___038_:2 0.002624
63 bel_sr\[0\]:2 u_sm___039_:2 0.002624
64 bel_sr\[0\]:2 w_in\[2\]:2 0.003186
*RES
1 bel_sr\[0\]:1 bel_sr\[0\]:2 255.167600
2 bel_sr\[0\]:1 u_sm___168_:X 0.000000
3 bel_sr\[0\]:1 g_slice_3__u_slice___17_:A 0.000000
4 bel_sr\[0\]:1 g_slice_2__u_slice___17_:A 0.000000
5 bel_sr\[0\]:1 g_slice_1__u_slice___17_:A 0.000000
6 bel_sr\[0\]:1 g_slice_0__u_slice___17_:A 0.000000
*END

*D_NET cfg\[0\] 5.155984
*CONN
*P cfg\[0\] B
*I g_slice_0__u_slice___09_:A0 B
*CAP
1 cfg\[0\]:2 5.126708
2 cfg\[0\]:2 cfg\[100\]:2 0.003620
3 cfg\[0\]:2 cfg\[1\]:2 0.007580
4 cfg\[0\]:2 cfg\[3\]:2 0.004956
5 cfg\[0\]:2 w_in\[3\]:2 0.002624
6 cfg\[0\]:2 w_out\[0\]:2 0.002624
7 cfg\[0\]:2 w_out\[1\]:2 0.002624
8 cfg\[0\]:2 w_out\[2\]:2 0.002624
9 cfg\[0\]:2 w_out\[3\]:2 0.002624
*RES
1 cfg[0] cfg\[0\]:2 77.639000
2 cfg[0] g_slice_0__u_slice___09_:A0 0.000000
*END

*D_NET cfg\[100\] 9.519173
*CONN
*P cfg\[100\] B
*I u_sm___115_:B2 B
*I u_sm___113_:S B
*I u_sm___112_:S0 B
*CAP
1 cfg\[100\]:2 9.360055
2 cfg\[100\]:2 cfg\[1\]:2 0.002624
3 cfg\[100\]:2 cfg\[2\]:2 0.003620
4 cfg\[100\]:2 cfg\[3\]:2 0.002624
5 cfg\[100\]:2 cfg\[4\]:2 0.002624
6 cfg\[100\]:2 cfg\[98\]:2 0.005247
7 cfg\[100\]:2 cfg\[99\]:2 0.004310
8 cfg\[100\]:2 cfg\[9\]:2 0.006934
9 cfg\[100\]:2 clk:2 0.016773
10 cfg\[100\]:2 clknet_0_clk:2 0.002624
11 cfg\[100\]:2 clknet_1_0__leaf_clk:2 0.002624
12 cfg\[100\]:2 e_in\[2\]:2 0.002624
13 cfg\[100\]:2 g_slice_0__u_slice___05_:2 0.002624
14 cfg\[100\]:2 g_slice_3__u_slice__ff_q:2 0.004310
15 cfg\[100\]:2 lut_in\[10\]:2 0.003620
16 cfg\[100\]:2 lut_in\[5\]:2 0.006840
17 cfg\[100\]:2 lut_in\[6\]:2 0.003206
18 cfg\[100\]:2 lut_in\[7\]:2 0.002624
19 cfg\[100\]:2 lut_in\[8\]:2 0.003620
20 cfg\[100\]:2 lut_in\[9\]:2 0.003620
21 cfg\[100\]:2 n_in\[2\]:2 0.002624
22 cfg\[100\]:2 u_sm___036_:2 0.009644
23 cfg\[100\]:2 u_sm___037_:2 0.008196
24 cfg\[100\]:2 u_sm___038_:2 0.007871
25 cfg\[100\]:2 u_sm___039_:2 0.007871
26 cfg\[100\]:2 u_sm___043_:2 0.003620
27 cfg\[100\]:2 w_in\[0\]:2 0.003620
28 cfg\[100\]:2 w_in\[1\]:2 0.003620
29 cfg\[100\]:2 w_in\[2\]:2 0.003620
30 cfg\[100\]:2 w_in\[3\]:2 0.010860
31 cfg\[100\]:2 w_out\[0\]:2 0.003620
32 cfg\[100\]:2 w_out\[1\]:2 0.003620
33 cfg\[100\]:2 w_out\[2\]:2 0.003620
34 cfg\[100\]:2 w_out\[3\]:2 0.003620
*RES
1 cfg[100] cfg\[100\]:2 218.103800
2 cfg[100] u_sm___115_:B2 0.000000
3 cfg[100] u_sm___113_:S 0.000000
4 cfg[100] u_sm___112_:S0 0.000000
*END

*D_NET cfg\[101\] 2.183361
*CONN
*P cfg\[101\] B
*I u_sm___120_:A1 B
*I u_sm___119_:B B
*I u_sm___117_:S0 B
*CAP
1 cfg\[101\]:2 2.134762
2 cfg\[101\]:2 cfg\[102\]:2 0.010136
3 cfg\[101\]:2 cfg\[103\]:2 0.006244
4 cfg\[101\]:2 cfg\[106\]:2 0.002624
5 cfg\[101\]:2 e_in\[3\]:2 0.002624
6 cfg\[101\]:2 s_in\[0\]:2 0.002624
7 cfg\[101\]:2 u_sm___042_:2 0.007443
8 cfg\[101\]:2 u_sm___043_:2 0.007346
9 cfg\[101\]:2 u_sm___045_:2 0.002624
10 cfg\[101\]:2 w_in\[3\]:2 0.006934
*RES
1 cfg[101] cfg\[101\]:2 169.047400
2 cfg[101] u_sm___120_:A1 0.000000
3 cfg[101] u_sm___119_:B 0.000000
4 cfg[101] u_sm___117_:S0 0.000000
*END

*D_NET cfg\[102\] 2.161247
*CONN
*P cfg\[102\] B
*I u_sm___121_:A1 B
*I u_sm___120_:C1 B
*CAP
1 cfg\[102\]:2 2.133204
2 cfg\[102\]:2 cfg\[103\]:2 0.003620
3 cfg\[102\]:2 cfg\[106\]:2 0.003620
4 cfg\[102\]:2 e_in\[3\]:2 0.003137
5 cfg\[102\]:2 n_in\[3\]:2 0.003186
6 cfg\[102\]:2 s_in\[0\]:2 0.003620
7 cfg\[102\]:2 u_sm___043_:2 0.003620
8 cfg\[102\]:2 u_sm___045_:2 0.003620
9 cfg\[102\]:2 w_in\[3\]:2 0.003620
*RES
1 cfg[102] cfg\[102\]:2 59.565200
2 cfg[102] u_sm___121_:A1 0.000000
3 cfg[102] u_sm___120_:C1 0.000000
*END

*D_NET cfg\[103\] 2.385531
*CONN
*P cfg\[103\] B
*I u_sm___120_:B2 B
*I u_sm___118_:S B
*I u_sm___117_:S1 B
*CAP
1 cfg\[103\]:2 2.350308
2 cfg\[103\]:2 cfg\[106\]:2 0.002624
3 cfg\[103\]:2 s_in\[0\]:2 0.002624
4 cfg\[103\]:2 u_sm___042_:2 0.014124
5 cfg\[103\]:2 u_sm___043_:2 0.002624
6 cfg\[103\]:2 u_sm___045_:2 0.002624
7 cfg\[103\]:2 w_in\[3\]:2 0.010603
*RES
1 cfg[103] cfg\[103\]:2 92.170500
2 cfg[103] u_sm___120_:B2 0.000000
3 cfg[103] u_sm___118_:S 0.000000
4 cfg[103] u_sm___117_:S1 0.000000
*END

*D_NET cfg\[104\] 3.012800
*CONN
*P cfg\[104\] B
*I u_sm___125_:A1 B
*I u_sm___124_:B B
*I u_sm___122_:S0 B
*CAP
1 cfg\[104\]:2 2.937726
2 cfg\[104\]:2 cfg\[105\]:2 0.002624
3 cfg\[104\]:2 cfg\[106\]:2 0.006244
4 cfg\[104\]:2 cfg\[107\]:2 0.002624
5 cfg\[104\]:2 cfg\[108\]:2 0.015367
6 cfg\[104\]:2 cfg\[10\]:2 0.003620
7 cfg\[104\]:2 cfg\[110\]:2 0.003620
8 cfg\[104\]:2 e_in\[0\]:2 0.002624
9 cfg\[104\]:2 e_in\[1\]:2 0.002624
10 cfg\[104\]:2 e_in\[3\]:2 0.002624
11 cfg\[104\]:2 n_in\[0\]:2 0.005247
12 cfg\[104\]:2 s_in\[0\]:2 0.007930
13 cfg\[104\]:2 s_in\[1\]:2 0.002624
14 cfg\[104\]:2 u_sm___045_:2 0.002624
15 cfg\[104\]:2 u_sm___047_:2 0.003186
16 cfg\[104\]:2 u_sm___051_:2 0.002624
17 cfg\[104\]:2 w_in\[3\]:2 0.003620
18 cfg\[104\]:2 w_out\[0\]:2 0.002624
19 cfg\[104\]:2 w_out\[1\]:2 0.002624
*RES
1 cfg[104] cfg\[104\]:2 173.459000
2 cfg[104] u_sm___125_:A1 0.000000
3 cfg[104] u_sm___124_:B 0.000000
4 cfg[104] u_sm___122_:S0 0.000000
*END

*D_NET cfg\[105\] 1.495163
*CONN
*P cfg\[105\] B
*I u_sm___126_:A1 B
*I u_sm___125_:C1 B
*CAP
1 cfg\[105\]:2 1.449029
2 cfg\[105\]:2 cfg\[106\]:2 0.005247
3 cfg\[105\]:2 s_in\[0\]:2 0.002624
4 cfg\[105\]:2 u_sm___044_:2 0.003437
5 cfg\[105\]:2 u_sm___045_:2 0.005981
6 cfg\[105\]:2 u_sm___046_:2 0.005276
7 cfg\[105\]:2 u_sm___047_:2 0.016468
8 cfg\[105\]:2 w_in\[3\]:2 0.002624
9 cfg\[105\]:2 w_out\[0\]:2 0.004477
*RES
1 cfg[105] cfg\[105\]:2 60.714600
2 cfg[105] u_sm___126_:A1 0.000000
3 cfg[105] u_sm___125_:C1 0.000000
*END

*D_NET cfg\[106\] 2.876365
*CONN
*P cfg\[106\] B
*I u_sm___125_:B2 B
*I u_sm___123_:S B
*I u_sm___122_:S1 B
*CAP
1 cfg\[106\]:2 2.790588
2 cfg\[106\]:2 cfg\[107\]:2 0.002624
3 cfg\[106\]:2 cfg\[108\]:2 0.002624
4 cfg\[106\]:2 cfg\[109\]:2 0.002624
5 cfg\[106\]:2 cfg\[10\]:2 0.003620
6 cfg\[106\]:2 cfg\[110\]:2 0.003137
7 cfg\[106\]:2 e_in\[3\]:2 0.004310
8 cfg\[106\]:2 s_in\[0\]:2 0.005247
9 cfg\[106\]:2 u_sm___041_:2 0.005356
10 cfg\[106\]:2 u_sm___044_:2 0.006384
11 cfg\[106\]:2 u_sm___045_:2 0.008605
12 cfg\[106\]:2 u_sm___046_:2 0.009493
13 cfg\[106\]:2 u_sm___047_:2 0.013881
14 cfg\[106\]:2 u_sm___051_:2 0.002624
15 cfg\[106\]:2 w_in\[3\]:2 0.002624
16 cfg\[106\]:2 w_out\[0\]:2 0.012624
*RES
1 cfg[106] cfg\[106\]:2 97.559400
2 cfg[106] u_sm___125_:B2 0.000000
3 cfg[106] u_sm___123_:S 0.000000
4 cfg[106] u_sm___122_:S1 0.000000
*END

*D_NET cfg\[107\] 2.167413
*CONN
*P cfg\[107\] B
*I u_sm___130_:A1 B
*I u_sm___129_:B B
*I u_sm___127_:S0 B
*CAP
1 cfg\[107\]:2 2.117045
2 cfg\[107\]:2 cfg\[108\]:2 0.005761
3 cfg\[107\]:2 cfg\[109\]:2 0.013598
4 cfg\[107\]:2 cfg\[111\]:2 0.004310
5 cfg\[107\]:2 e_in\[3\]:2 0.002624
6 cfg\[107\]:2 s_in\[0\]:2 0.005247
7 cfg\[107\]:2 s_in\[1\]:2 0.000103
8 cfg\[107\]:2 u_sm___044_:2 0.002624
9 cfg\[107\]:2 u_sm___049_:2 0.008171
10 cfg\[107\]:2 u_sm___051_:2 0.004310
11 cfg\[107\]:2 w_in\[3\]:2 0.003620
*RES
1 cfg[107] cfg\[107\]:2 168.618900
2 cfg[107] u_sm___130_:A1 0.000000
3 cfg[107] u_sm___129_:B 0.000000
4 cfg[107] u_sm___127_:S0 0.000000
*END

*D_NET cfg\[108\] 1.710430
*CONN
*P cfg\[108\] B
*I u_sm___131_:A1 B
*I u_sm___130_:C1 B
*CAP
1 cfg\[108\]:2 1.627553
2 cfg\[108\]:2 cfg\[109\]:2 0.002624
3 cfg\[108\]:2 e_in\[3\]:2 0.015367
4 cfg\[108\]:2 s_in\[0\]:2 0.002624
5 cfg\[108\]:2 u_sm___044_:2 0.002624
6 cfg\[108\]:2 u_sm___048_:2 0.008394
7 cfg\[108\]:2 u_sm___049_:2 0.012319
8 cfg\[108\]:2 u_sm___050_:2 0.004819
9 cfg\[108\]:2 u_sm___051_:2 0.024382
10 cfg\[108\]:2 w_in\[3\]:2 0.002624
11 cfg\[108\]:2 w_out\[1\]:2 0.007100
*RES
1 cfg[108] cfg\[108\]:2 63.150600
2 cfg[108] u_sm___131_:A1 0.000000
3 cfg[108] u_sm___130_:C1 0.000000
*END

*D_NET cfg\[109\] 1.605938
*CONN
*P cfg\[109\] B
*I u_sm___130_:B2 B
*I u_sm___128_:S B
*I u_sm___127_:S1 B
*CAP
1 cfg\[109\]:2 1.586891
2 cfg\[109\]:2 s_in\[0\]:2 0.004310
3 cfg\[109\]:2 s_in\[1\]:2 0.005356
4 cfg\[109\]:2 u_sm___049_:2 0.005761
5 cfg\[109\]:2 w_in\[3\]:2 0.003620
*RES
1 cfg[109] cfg\[109\]:2 85.396500
2 cfg[109] u_sm___130_:B2 0.000000
3 cfg[109] u_sm___128_:S 0.000000
4 cfg[109] u_sm___127_:S1 0.000000
*END

*D_NET cfg\[10\] 3.788219
*CONN
*P cfg\[10\] B
*I g_slice_0__u_slice___10_:A2 B
*CAP
1 cfg\[10\]:2 3.709109
2 cfg\[10\]:2 cfg\[110\]:2 0.003620
3 cfg\[10\]:2 cfg\[111\]:2 0.003620
4 cfg\[10\]:2 cfg\[112\]:2 0.003620
5 cfg\[10\]:2 cfg\[11\]:2 0.002624
6 cfg\[10\]:2 e_in\[1\]:2 0.003620
7 cfg\[10\]:2 e_in\[3\]:2 0.003620
8 cfg\[10\]:2 lut_in\[0\]:2 0.004310
9 cfg\[10\]:2 lut_in\[1\]:2 0.003437
10 cfg\[10\]:2 lut_in\[9\]:2 0.003620
11 cfg\[10\]:2 n_in\[3\]:2 0.003620
12 cfg\[10\]:2 s_in\[0\]:2 0.003620
13 cfg\[10\]:2 s_in\[1\]:2 0.003620
14 cfg\[10\]:2 s_out\[3\]:2 0.007563
15 cfg\[10\]:2 u_sm___044_:2 0.003620
16 cfg\[10\]:2 u_sm___053_:2 0.003620
17 cfg\[10\]:2 u_sm___054_:2 0.003620
18 cfg\[10\]:2 u_sm___055_:2 0.003620
19 cfg\[10\]:2 w_in\[0\]:2 0.002624
20 cfg\[10\]:2 w_in\[1\]:2 0.002624
21 cfg\[10\]:2 w_in\[3\]:2 0.003620
22 cfg\[10\]:2 w_out\[2\]:2 0.002624
23 cfg\[10\]:2 w_out\[3\]:2 0.002624
*RES
1 cfg[10] cfg\[10\]:2 63.018400
2 cfg[10] g_slice_0__u_slice___10_:A2 0.000000
*END

*D_NET cfg\[110\] 3.741588
*CONN
*P cfg\[110\] B
*I u_sm___135_:A1 B
*I u_sm___134_:B B
*I u_sm___132_:S1 B
*CAP
1 cfg\[110\]:2 3.614661
2 cfg\[110\]:2 cfg\[111\]:2 0.006244
3 cfg\[110\]:2 cfg\[112\]:2 0.008867
4 cfg\[110\]:2 cfg\[113\]:2 0.004310
5 cfg\[110\]:2 e_in\[0\]:2 0.003137
6 cfg\[110\]:2 e_in\[1\]:2 0.003620
7 cfg\[110\]:2 e_in\[3\]:2 0.003620
8 cfg\[110\]:2 n_in\[0\]:2 0.005068
9 cfg\[110\]:2 n_in\[1\]:2 0.004310
10 cfg\[110\]:2 s_in\[0\]:2 0.003620
11 cfg\[110\]:2 s_in\[1\]:2 0.003620
12 cfg\[110\]:2 s_out\[3\]:2 0.007563
13 cfg\[110\]:2 u_sm___044_:2 0.002624
14 cfg\[110\]:2 u_sm___048_:2 0.002624
15 cfg\[110\]:2 u_sm___053_:2 0.017809
16 cfg\[110\]:2 u_sm___054_:2 0.008103
17 cfg\[110\]:2 u_sm___055_:2 0.023542
18 cfg\[110\]:2 u_sm___056_:2 0.002624
19 cfg\[110\]:2 w_in\[0\]:2 0.005068
20 cfg\[110\]:2 w_in\[3\]:2 0.003620
21 cfg\[110\]:2 w_out\[2\]:2 0.004310
22 cfg\[110\]:2 w_out\[3\]:2 0.002624
*RES
1 cfg[110] cfg\[110\]:2 96.314800
2 cfg[110] u_sm___135_:A1 0.000000
3 cfg[110] u_sm___134_:B 0.000000
4 cfg[110] u_sm___132_:S1 0.000000
*END

*D_NET cfg\[111\] 2.645743
*CONN
*P cfg\[111\] B
*I u_sm___136_:A1 B
*I u_sm___135_:C1 B
*CAP
1 cfg\[111\]:2 2.582463
2 cfg\[111\]:2 cfg\[112\]:2 0.006244
3 cfg\[111\]:2 cfg\[113\]:2 0.002624
4 cfg\[111\]:2 e_in\[0\]:2 0.003620
5 cfg\[111\]:2 e_in\[1\]:2 0.003620
6 cfg\[111\]:2 e_in\[3\]:2 0.003620
7 cfg\[111\]:2 n_in\[0\]:2 0.007930
8 cfg\[111\]:2 s_in\[0\]:2 0.003620
9 cfg\[111\]:2 s_in\[1\]:2 0.003620
10 cfg\[111\]:2 s_out\[3\]:2 0.007777
11 cfg\[111\]:2 u_sm___044_:2 0.002624
12 cfg\[111\]:2 u_sm___048_:2 0.002624
13 cfg\[111\]:2 u_sm___055_:2 0.003677
14 cfg\[111\]:2 u_sm___056_:2 0.002624
15 cfg\[111\]:2 w_in\[3\]:2 0.003620
16 cfg\[111\]:2 w_out\[2\]:2 0.005436
*RES
1 cfg[111] cfg\[111\]:2 66.822800
2 cfg[111] u_sm___136_:A1 0.000000
3 cfg[111] u_sm___135_:C1 0.000000
*END

*D_NET cfg\[112\] 4.072882
*CONN
*P cfg\[112\] B
*I u_sm___135_:B2 B
*I u_sm___133_:S B
*I u_sm___132_:S0 B
*CAP
1 cfg\[112\]:2 3.978304
2 cfg\[112\]:2 cfg\[113\]:2 0.003137
3 cfg\[112\]:2 e_in\[0\]:2 0.003620
4 cfg\[112\]:2 e_in\[1\]:2 0.003620
5 cfg\[112\]:2 e_in\[2\]:2 0.004310
6 cfg\[112\]:2 e_in\[3\]:2 0.003620
7 cfg\[112\]:2 lut_in\[9\]:2 0.003186
8 cfg\[112\]:2 n_in\[0\]:2 0.003620
9 cfg\[112\]:2 n_in\[1\]:2 0.005247
10 cfg\[112\]:2 n_in\[2\]:2 0.005247
11 cfg\[112\]:2 n_in\[3\]:2 0.006934
12 cfg\[112\]:2 s_in\[0\]:2 0.003620
13 cfg\[112\]:2 s_in\[1\]:2 0.003620
14 cfg\[112\]:2 s_in\[2\]:2 0.002624
15 cfg\[112\]:2 s_out\[3\]:2 0.007563
16 cfg\[112\]:2 u_sm___044_:2 0.004310
17 cfg\[112\]:2 u_sm___048_:2 0.002624
18 cfg\[112\]:2 u_sm___054_:2 0.007496
19 cfg\[112\]:2 u_sm___056_:2 0.002624
20 cfg\[112\]:2 w_in\[0\]:2 0.008688
21 cfg\[112\]:2 w_in\[3\]:2 0.003620
22 cfg\[112\]:2 w_out\[2\]:2 0.002624
23 cfg\[112\]:2 w_out\[3\]:2 0.002624
*RES
1 cfg[112] cfg\[112\]:2 187.656700
2 cfg[112] u_sm___135_:B2 0.000000
3 cfg[112] u_sm___133_:S 0.000000
4 cfg[112] u_sm___132_:S0 0.000000
*END

*D_NET cfg\[113\] 2.537580
*CONN
*P cfg\[113\] B
*I u_sm___140_:A1 B
*I u_sm___139_:B B
*I u_sm___137_:S0 B
*CAP
1 cfg\[113\]:2 2.461022
2 cfg\[113\]:2 cfg\[114\]:2 0.008254
3 cfg\[113\]:2 cfg\[115\]:2 0.006244
4 cfg\[113\]:2 e_in\[0\]:2 0.002624
5 cfg\[113\]:2 e_in\[1\]:2 0.002624
6 cfg\[113\]:2 e_in\[3\]:2 0.002624
7 cfg\[113\]:2 n_in\[0\]:2 0.002624
8 cfg\[113\]:2 s_in\[0\]:2 0.003620
9 cfg\[113\]:2 s_in\[1\]:2 0.003620
10 cfg\[113\]:2 u_sm___058_:2 0.030734
11 cfg\[113\]:2 u_sm___059_:2 0.009970
12 cfg\[113\]:2 w_in\[3\]:2 0.003620
*RES
1 cfg[113] cfg\[113\]:2 171.138300
2 cfg[113] u_sm___140_:A1 0.000000
3 cfg[113] u_sm___139_:B 0.000000
4 cfg[113] u_sm___137_:S0 0.000000
*END

*D_NET cfg\[114\] 1.734951
*CONN
*P cfg\[114\] B
*I u_sm___141_:A1 B
*I u_sm___140_:C1 B
*CAP
1 cfg\[114\]:2 1.679662
2 cfg\[114\]:2 cfg\[115\]:2 0.011391
3 cfg\[114\]:2 e_in\[0\]:2 0.002624
4 cfg\[114\]:2 e_in\[1\]:2 0.002624
5 cfg\[114\]:2 e_in\[3\]:2 0.002624
6 cfg\[114\]:2 n_in\[0\]:2 0.002624
7 cfg\[114\]:2 s_in\[0\]:2 0.006244
8 cfg\[114\]:2 s_in\[1\]:2 0.007930
9 cfg\[114\]:2 u_sm___056_:2 0.003437
10 cfg\[114\]:2 u_sm___057_:2 0.007694
11 cfg\[114\]:2 w_in\[3\]:2 0.003620
12 cfg\[114\]:2 w_out\[3\]:2 0.004477
*RES
1 cfg[114] cfg\[114\]:2 58.963000
2 cfg[114] u_sm___141_:A1 0.000000
3 cfg[114] u_sm___140_:C1 0.000000
*END

*D_NET cfg\[115\] 2.314987
*CONN
*P cfg\[115\] B
*I u_sm___140_:B2 B
*I u_sm___138_:S B
*I u_sm___137_:S1 B
*CAP
1 cfg\[115\]:2 2.274823
2 cfg\[115\]:2 e_in\[0\]:2 0.002624
3 cfg\[115\]:2 e_in\[1\]:2 0.002624
4 cfg\[115\]:2 e_in\[3\]:2 0.004310
5 cfg\[115\]:2 n_in\[0\]:2 0.007930
6 cfg\[115\]:2 s_in\[0\]:2 0.003620
7 cfg\[115\]:2 s_in\[1\]:2 0.003620
8 cfg\[115\]:2 u_sm___057_:2 0.001262
9 cfg\[115\]:2 u_sm___058_:2 0.003620
10 cfg\[115\]:2 u_sm___059_:2 0.002624
11 cfg\[115\]:2 w_in\[3\]:2 0.003620
12 cfg\[115\]:2 w_out\[3\]:2 0.004310
*RES
1 cfg[115] cfg\[115\]:2 87.855400
2 cfg[115] u_sm___140_:B2 0.000000
3 cfg[115] u_sm___138_:S 0.000000
4 cfg[115] u_sm___137_:S1 0.000000
*END

*D_NET cfg\[116\] 1.696277
*CONN
*P cfg\[116\] B
*I u_sm___142_:S0 B
*CAP
1 cfg\[116\]:2 1.659967
2 cfg\[116\]:2 cfg\[117\]:2 0.002624
3 cfg\[116\]:2 cfg\[118\]:2 0.006244
4 cfg\[116\]:2 e_in\[0\]:2 0.002624
5 cfg\[116\]:2 e_in\[1\]:2 0.004310
6 cfg\[116\]:2 n_in\[0\]:2 0.003206
7 cfg\[116\]:2 s_in\[0\]:2 0.002624
8 cfg\[116\]:2 s_in\[1\]:2 0.002624
9 cfg\[116\]:2 s_in\[2\]:2 0.003186
10 cfg\[116\]:2 s_in\[3\]:2 0.002624
11 cfg\[116\]:2 w_in\[0\]:2 0.002624
12 cfg\[116\]:2 w_in\[3\]:2 0.003620
*RES
1 cfg[116] cfg\[116\]:2 120.537400
2 cfg[116] u_sm___142_:S0 0.000000
*END

*D_NET cfg\[117\] 1.112144
*CONN
*P cfg\[117\] B
*I u_sm___142_:S1 B
*CAP
1 cfg\[117\]:2 1.085330
2 cfg\[117\]:2 s_in\[0\]:2 0.006061
3 cfg\[117\]:2 s_in\[1\]:2 0.002624
4 cfg\[117\]:2 w_in\[0\]:2 0.015505
5 cfg\[117\]:2 w_in\[3\]:2 0.002624
*RES
1 cfg[117] cfg\[117\]:2 35.403100
2 cfg[117] u_sm___142_:S1 0.000000
*END

*D_NET cfg\[118\] 1.711947
*CONN
*P cfg\[118\] B
*I u_sm___143_:S0 B
*CAP
1 cfg\[118\]:2 1.671023
2 cfg\[118\]:2 cfg\[11\]:2 0.005068
3 cfg\[118\]:2 e_in\[0\]:2 0.002624
4 cfg\[118\]:2 e_in\[1\]:2 0.002624
5 cfg\[118\]:2 e_in\[2\]:2 0.002624
6 cfg\[118\]:2 e_in\[3\]:2 0.004310
7 cfg\[118\]:2 n_in\[0\]:2 0.002624
8 cfg\[118\]:2 s_in\[0\]:2 0.004310
9 cfg\[118\]:2 s_in\[1\]:2 0.002624
10 cfg\[118\]:2 s_in\[2\]:2 0.002624
11 cfg\[118\]:2 s_in\[3\]:2 0.002624
12 cfg\[118\]:2 w_in\[0\]:2 0.002624
13 cfg\[118\]:2 w_in\[1\]:2 0.002624
14 cfg\[118\]:2 w_in\[3\]:2 0.003620
*RES
1 cfg[118] cfg\[118\]:2 120.306500
2 cfg[118] u_sm___143_:S0 0.000000
*END

*D_NET cfg\[119\] 1.259788
*CONN
*P cfg\[119\] B
*I u_sm___143_:S1 B
*CAP
1 cfg\[119\]:2 1.230824
2 cfg\[119\]:2 cfg\[11\]:2 0.003620
3 cfg\[119\]:2 s_in\[0\]:2 0.002624
4 cfg\[119\]:2 s_in\[1\]:2 0.002624
5 cfg\[119\]:2 s_in\[2\]:2 0.002624
6 cfg\[119\]:2 s_in\[3\]:2 0.004310
7 cfg\[119\]:2 w_in\[0\]:2 0.002624
8 cfg\[119\]:2 w_in\[1\]:2 0.007914
9 cfg\[119\]:2 w_in\[3\]:2 0.002624
*RES
1 cfg[119] cfg\[119\]:2 37.024800
2 cfg[119] u_sm___143_:S1 0.000000
*END

*D_NET cfg\[11\] 2.665926
*CONN
*P cfg\[11\] B
*I g_slice_0__u_slice___10_:A3 B
*CAP
1 cfg\[11\]:2 2.574106
2 cfg\[11\]:2 e_in\[0\]:2 0.003620
3 cfg\[11\]:2 e_in\[1\]:2 0.003620
4 cfg\[11\]:2 e_in\[2\]:2 0.003620
5 cfg\[11\]:2 e_in\[3\]:2 0.003620
6 cfg\[11\]:2 lut_in\[0\]:2 0.011908
7 cfg\[11\]:2 lut_in\[1\]:2 0.014429
8 cfg\[11\]:2 lut_in\[9\]:2 0.003620
9 cfg\[11\]:2 n_in\[0\]:2 0.003620
10 cfg\[11\]:2 n_in\[1\]:2 0.003620
11 cfg\[11\]:2 n_in\[2\]:2 0.003620
12 cfg\[11\]:2 n_in\[3\]:2 0.003620
13 cfg\[11\]:2 s_in\[0\]:2 0.003620
14 cfg\[11\]:2 s_in\[1\]:2 0.003620
15 cfg\[11\]:2 s_in\[2\]:2 0.003620
16 cfg\[11\]:2 s_in\[3\]:2 0.003620
17 cfg\[11\]:2 s_out\[3\]:2 0.007563
18 cfg\[11\]:2 w_in\[0\]:2 0.003620
19 cfg\[11\]:2 w_in\[1\]:2 0.003620
20 cfg\[11\]:2 w_in\[3\]:2 0.003620
*RES
1 cfg[11] cfg\[11\]:2 50.684600
2 cfg[11] g_slice_0__u_slice___10_:A3 0.000000
*END

*D_NET cfg\[120\] 1.639571
*CONN
*P cfg\[120\] B
*I u_sm___144_:S0 B
*CAP
1 cfg\[120\]:2 1.591065
2 cfg\[120\]:2 cfg\[121\]:2 0.002624
3 cfg\[120\]:2 e_in\[0\]:2 0.002624
4 cfg\[120\]:2 e_in\[1\]:2 0.002624
5 cfg\[120\]:2 e_in\[2\]:2 0.002624
6 cfg\[120\]:2 e_in\[3\]:2 0.004310
7 cfg\[120\]:2 n_in\[0\]:2 0.002624
8 cfg\[120\]:2 n_in\[2\]:2 0.002624
9 cfg\[120\]:2 s_in\[0\]:2 0.004310
10 cfg\[120\]:2 s_in\[1\]:2 0.002624
11 cfg\[120\]:2 s_in\[2\]:2 0.002624
12 cfg\[120\]:2 s_in\[3\]:2 0.002624
13 cfg\[120\]:2 w_in\[0\]:2 0.002624
14 cfg\[120\]:2 w_in\[1\]:2 0.002624
15 cfg\[120\]:2 w_in\[2\]:2 0.007402
16 cfg\[120\]:2 w_in\[3\]:2 0.003620
*RES
1 cfg[120] cfg\[120\]:2 119.397900
2 cfg[120] u_sm___144_:S0 0.000000
*END

*D_NET cfg\[121\] 1.127118
*CONN
*P cfg\[121\] B
*I u_sm___144_:S1 B
*CAP
1 cfg\[121\]:2 1.100722
2 cfg\[121\]:2 s_in\[0\]:2 0.002624
3 cfg\[121\]:2 s_in\[1\]:2 0.002624
4 cfg\[121\]:2 s_in\[2\]:2 0.006061
5 cfg\[121\]:2 s_in\[3\]:2 0.009839
6 cfg\[121\]:2 w_in\[0\]:2 0.002624
7 cfg\[121\]:2 w_in\[3\]:2 0.002624
*RES
1 cfg[121] cfg\[121\]:2 35.536300
2 cfg[121] u_sm___144_:S1 0.000000
*END

*D_NET cfg\[122\] 1.573135
*CONN
*P cfg\[122\] B
*I u_sm___145_:S0 B
*CAP
1 cfg\[122\]:2 1.524916
2 cfg\[122\]:2 cfg\[123\]:2 0.009285
3 cfg\[122\]:2 e_in\[0\]:2 0.002624
4 cfg\[122\]:2 e_in\[1\]:2 0.004310
5 cfg\[122\]:2 e_in\[2\]:2 0.002624
6 cfg\[122\]:2 e_in\[3\]:2 0.000582
7 cfg\[122\]:2 n_in\[0\]:2 0.002624
8 cfg\[122\]:2 n_in\[2\]:2 0.002624
9 cfg\[122\]:2 s_in\[0\]:2 0.002624
10 cfg\[122\]:2 s_in\[1\]:2 0.002624
11 cfg\[122\]:2 s_in\[2\]:2 0.003620
12 cfg\[122\]:2 s_in\[3\]:2 0.002624
13 cfg\[122\]:2 w_in\[0\]:2 0.002624
14 cfg\[122\]:2 w_in\[1\]:2 0.003186
15 cfg\[122\]:2 w_in\[2\]:2 0.002624
16 cfg\[122\]:2 w_in\[3\]:2 0.003620
*RES
1 cfg[122] cfg\[122\]:2 119.023200
2 cfg[122] u_sm___145_:S0 0.000000
*END

*D_NET cfg\[123\] 1.059351
*CONN
*P cfg\[123\] B
*I u_sm___145_:S1 B
*CAP
1 cfg\[123\]:2 1.036591
2 cfg\[123\]:2 s_in\[0\]:2 0.002624
3 cfg\[123\]:2 s_in\[1\]:2 0.002624
4 cfg\[123\]:2 s_in\[2\]:2 0.003620
5 cfg\[123\]:2 s_in\[3\]:2 0.000060
6 cfg\[123\]:2 w_in\[0\]:2 0.004310
7 cfg\[123\]:2 w_in\[2\]:2 0.002624
8 cfg\[123\]:2 w_in\[3\]:2 0.006898
*RES
1 cfg[123] cfg\[123\]:2 30.729200
2 cfg[123] u_sm___145_:S1 0.000000
*END

*D_NET cfg\[124\] 3.206845
*CONN
*P cfg\[124\] B
*I u_sm___146_:S0 B
*CAP
1 cfg\[124\]:2 3.067406
2 cfg\[124\]:2 cfg\[125\]:2 0.003620
3 cfg\[124\]:2 cfg\[126\]:2 0.003620
4 cfg\[124\]:2 cfg\[127\]:2 0.003620
5 cfg\[124\]:2 cfg\[128\]:2 0.003620
6 cfg\[124\]:2 cfg\[129\]:2 0.002624
7 cfg\[124\]:2 cfg\[12\]:2 0.007240
8 cfg\[124\]:2 cfg\[130\]:2 0.003620
9 cfg\[124\]:2 cfg\[131\]:2 0.003620
10 cfg\[124\]:2 cfg\[132\]:2 0.003620
11 cfg\[124\]:2 cfg\[133\]:2 0.003620
12 cfg\[124\]:2 cfg\[6\]:2 0.002624
13 cfg\[124\]:2 e_in\[0\]:2 0.012905
14 cfg\[124\]:2 e_in\[1\]:2 0.003620
15 cfg\[124\]:2 e_in\[2\]:2 0.008254
16 cfg\[124\]:2 e_in\[3\]:2 0.003620
17 cfg\[124\]:2 lut_in\[9\]:2 0.002624
18 cfg\[124\]:2 n_in\[0\]:2 0.003620
19 cfg\[124\]:2 n_in\[1\]:2 0.002624
20 cfg\[124\]:2 n_in\[2\]:2 0.003620
21 cfg\[124\]:2 n_in\[3\]:2 0.007930
22 cfg\[124\]:2 s_in\[0\]:2 0.006498
23 cfg\[124\]:2 s_in\[1\]:2 0.003620
24 cfg\[124\]:2 s_in\[2\]:2 0.003620
25 cfg\[124\]:2 s_in\[3\]:2 0.003620
26 cfg\[124\]:2 s_out\[3\]:2 0.007563
27 cfg\[124\]:2 w_in\[0\]:2 0.003620
28 cfg\[124\]:2 w_in\[1\]:2 0.007563
29 cfg\[124\]:2 w_in\[2\]:2 0.006826
30 cfg\[124\]:2 w_in\[3\]:2 0.006244
*RES
1 cfg[124] cfg\[124\]:2 128.466500
2 cfg[124] u_sm___146_:S0 0.000000
*END

*D_NET cfg\[125\] 2.220991
*CONN
*P cfg\[125\] B
*I u_sm___146_:S1 B
*CAP
1 cfg\[125\]:2 2.121006
2 cfg\[125\]:2 cfg\[127\]:2 0.003137
3 cfg\[125\]:2 cfg\[130\]:2 0.003620
4 cfg\[125\]:2 cfg\[131\]:2 0.003620
5 cfg\[125\]:2 e_in\[0\]:2 0.003620
6 cfg\[125\]:2 e_in\[1\]:2 0.005068
7 cfg\[125\]:2 e_in\[2\]:2 0.003620
8 cfg\[125\]:2 e_in\[3\]:2 0.003620
9 cfg\[125\]:2 lut_in\[5\]:2 0.002624
10 cfg\[125\]:2 lut_in\[6\]:2 0.002624
11 cfg\[125\]:2 lut_in\[8\]:2 0.003620
12 cfg\[125\]:2 n_in\[0\]:2 0.006244
13 cfg\[125\]:2 n_in\[1\]:2 0.009285
14 cfg\[125\]:2 n_in\[2\]:2 0.003620
15 cfg\[125\]:2 n_in\[3\]:2 0.003620
16 cfg\[125\]:2 s_in\[0\]:2 0.003620
17 cfg\[125\]:2 s_in\[1\]:2 0.005068
18 cfg\[125\]:2 s_in\[2\]:2 0.003620
19 cfg\[125\]:2 s_in\[3\]:2 0.003620
20 cfg\[125\]:2 s_out\[3\]:2 0.007563
21 cfg\[125\]:2 w_in\[0\]:2 0.003620
22 cfg\[125\]:2 w_in\[1\]:2 0.005068
23 cfg\[125\]:2 w_in\[2\]:2 0.006244
24 cfg\[125\]:2 w_in\[3\]:2 0.003620
*RES
1 cfg[125] cfg\[125\]:2 34.800900
2 cfg[125] u_sm___146_:S1 0.000000
*END

*D_NET cfg\[126\] 1.564938
*CONN
*P cfg\[126\] B
*I u_sm___147_:S0 B
*CAP
1 cfg\[126\]:2 1.510797
2 cfg\[126\]:2 cfg\[127\]:2 0.005984
3 cfg\[126\]:2 cfg\[131\]:2 0.002624
4 cfg\[126\]:2 e_in\[0\]:2 0.002624
5 cfg\[126\]:2 e_in\[1\]:2 0.002624
6 cfg\[126\]:2 e_in\[2\]:2 0.002624
7 cfg\[126\]:2 e_in\[3\]:2 0.002624
8 cfg\[126\]:2 n_in\[0\]:2 0.002624
9 cfg\[126\]:2 n_in\[2\]:2 0.002624
10 cfg\[126\]:2 s_in\[0\]:2 0.004310
11 cfg\[126\]:2 s_in\[1\]:2 0.002624
12 cfg\[126\]:2 s_in\[2\]:2 0.003620
13 cfg\[126\]:2 s_in\[3\]:2 0.003620
14 cfg\[126\]:2 w_in\[0\]:2 0.002624
15 cfg\[126\]:2 w_in\[1\]:2 0.006747
16 cfg\[126\]:2 w_in\[2\]:2 0.002624
17 cfg\[126\]:2 w_in\[3\]:2 0.003620
*RES
1 cfg[126] cfg\[126\]:2 118.489700
2 cfg[126] u_sm___147_:S0 0.000000
*END

*D_NET cfg\[127\] 1.324327
*CONN
*P cfg\[127\] B
*I u_sm___147_:S1 B
*CAP
1 cfg\[127\]:2 1.280158
2 cfg\[127\]:2 cfg\[131\]:2 0.005810
3 cfg\[127\]:2 s_in\[0\]:2 0.002624
4 cfg\[127\]:2 s_in\[1\]:2 0.002624
5 cfg\[127\]:2 s_in\[2\]:2 0.003620
6 cfg\[127\]:2 s_in\[3\]:2 0.003620
7 cfg\[127\]:2 w_in\[0\]:2 0.002624
8 cfg\[127\]:2 w_in\[1\]:2 0.010632
9 cfg\[127\]:2 w_in\[2\]:2 0.008995
10 cfg\[127\]:2 w_in\[3\]:2 0.003620
*RES
1 cfg[127] cfg\[127\]:2 33.792300
2 cfg[127] u_sm___147_:S1 0.000000
*END

*D_NET cfg\[128\] 1.598090
*CONN
*P cfg\[128\] B
*I u_sm___153_:S0 B
*CAP
1 cfg\[128\]:2 1.536949
2 cfg\[128\]:2 cfg\[129\]:2 0.006244
3 cfg\[128\]:2 cfg\[131\]:2 0.002624
4 cfg\[128\]:2 e_in\[0\]:2 0.002624
5 cfg\[128\]:2 e_in\[1\]:2 0.002624
6 cfg\[128\]:2 e_in\[2\]:2 0.002624
7 cfg\[128\]:2 e_in\[3\]:2 0.002624
8 cfg\[128\]:2 n_in\[0\]:2 0.002624
9 cfg\[128\]:2 n_in\[2\]:2 0.002624
10 cfg\[128\]:2 s_in\[0\]:2 0.004310
11 cfg\[128\]:2 s_in\[1\]:2 0.002624
12 cfg\[128\]:2 s_in\[2\]:2 0.009285
13 cfg\[128\]:2 s_in\[3\]:2 0.003620
14 cfg\[128\]:2 w_in\[0\]:2 0.002624
15 cfg\[128\]:2 w_in\[2\]:2 0.010446
16 cfg\[128\]:2 w_in\[3\]:2 0.003620
*RES
1 cfg[128] cfg\[128\]:2 118.792600
2 cfg[128] u_sm___153_:S0 0.000000
*END

*D_NET cfg\[129\] 1.241791
*CONN
*P cfg\[129\] B
*I u_sm___153_:S1 B
*CAP
1 cfg\[129\]:2 1.200705
2 cfg\[129\]:2 cfg\[131\]:2 0.008995
3 cfg\[129\]:2 s_in\[0\]:2 0.002624
4 cfg\[129\]:2 s_in\[1\]:2 0.002624
5 cfg\[129\]:2 s_in\[2\]:2 0.002624
6 cfg\[129\]:2 s_in\[3\]:2 0.002624
7 cfg\[129\]:2 w_in\[0\]:2 0.002624
8 cfg\[129\]:2 w_in\[2\]:2 0.016347
9 cfg\[129\]:2 w_in\[3\]:2 0.002624
*RES
1 cfg[129] cfg\[129\]:2 36.383400
2 cfg[129] u_sm___153_:S1 0.000000
*END

*D_NET cfg\[12\] 3.118979
*CONN
*P cfg\[12\] B
*I g_slice_0__u_slice___12_:A0 B
*CAP
1 cfg\[12\]:2 2.966072
2 cfg\[12\]:2 cfg\[130\]:2 0.003620
3 cfg\[12\]:2 cfg\[131\]:2 0.003620
4 cfg\[12\]:2 cfg\[132\]:2 0.003620
5 cfg\[12\]:2 cfg\[133\]:2 0.003620
6 cfg\[12\]:2 cfg\[13\]:2 0.013806
7 cfg\[12\]:2 cfg\[14\]:2 0.003620
8 cfg\[12\]:2 cfg\[15\]:2 0.002624
9 cfg\[12\]:2 cfg\[5\]:2 0.013806
10 cfg\[12\]:2 cfg\[6\]:2 0.003620
11 cfg\[12\]:2 cfg\[7\]:2 0.002624
12 cfg\[12\]:2 e_in\[0\]:2 0.003620
13 cfg\[12\]:2 e_in\[1\]:2 0.003620
14 cfg\[12\]:2 e_in\[2\]:2 0.003620
15 cfg\[12\]:2 e_in\[3\]:2 0.003620
16 cfg\[12\]:2 lut_in\[4\]:2 0.004217
17 cfg\[12\]:2 lut_in\[6\]:2 0.004956
18 cfg\[12\]:2 lut_in\[9\]:2 0.003620
19 cfg\[12\]:2 n_in\[0\]:2 0.003620
20 cfg\[12\]:2 n_in\[1\]:2 0.003620
21 cfg\[12\]:2 n_in\[2\]:2 0.003620
22 cfg\[12\]:2 n_in\[3\]:2 0.003620
23 cfg\[12\]:2 s_in\[0\]:2 0.003620
24 cfg\[12\]:2 s_in\[1\]:2 0.003620
25 cfg\[12\]:2 s_in\[2\]:2 0.003620
26 cfg\[12\]:2 s_in\[3\]:2 0.003620
27 cfg\[12\]:2 s_out\[3\]:2 0.007563
28 cfg\[12\]:2 u_sm___003_:2 0.006244
29 cfg\[12\]:2 w_in\[0\]:2 0.003620
30 cfg\[12\]:2 w_in\[1\]:2 0.007563
31 cfg\[12\]:2 w_in\[2\]:2 0.009864
32 cfg\[12\]:2 w_in\[3\]:2 0.007240
*RES
1 cfg[12] cfg\[12\]:2 60.695200
2 cfg[12] g_slice_0__u_slice___12_:A0 0.000000
*END

*D_NET cfg\[130\] 3.403383
*CONN
*P cfg\[130\] B
*I u_sm___154_:S0 B
*CAP
1 cfg\[130\]:2 3.269663
2 cfg\[130\]:2 cfg\[131\]:2 0.008867
3 cfg\[130\]:2 cfg\[132\]:2 0.003620
4 cfg\[130\]:2 cfg\[133\]:2 0.003620
5 cfg\[130\]:2 cfg\[138\]:2 0.003137
6 cfg\[130\]:2 e_in\[0\]:2 0.007240
7 cfg\[130\]:2 e_in\[1\]:2 0.003620
8 cfg\[130\]:2 e_in\[2\]:2 0.002624
9 cfg\[130\]:2 e_in\[3\]:2 0.003620
10 cfg\[130\]:2 lut_in\[2\]:2 0.002624
11 cfg\[130\]:2 lut_in\[3\]:2 0.006555
12 cfg\[130\]:2 lut_in\[9\]:2 0.002624
13 cfg\[130\]:2 n_in\[0\]:2 0.006244
14 cfg\[130\]:2 n_in\[1\]:2 0.012462
15 cfg\[130\]:2 n_in\[2\]:2 0.007930
16 cfg\[130\]:2 n_in\[3\]:2 0.005247
17 cfg\[130\]:2 s_in\[0\]:2 0.006244
18 cfg\[130\]:2 s_in\[1\]:2 0.003620
19 cfg\[130\]:2 s_in\[2\]:2 0.003620
20 cfg\[130\]:2 s_in\[3\]:2 0.010554
21 cfg\[130\]:2 s_out\[3\]:2 0.002357
22 cfg\[130\]:2 w_in\[0\]:2 0.007240
23 cfg\[130\]:2 w_in\[1\]:2 0.007563
24 cfg\[130\]:2 w_in\[2\]:2 0.006244
25 cfg\[130\]:2 w_in\[3\]:2 0.006244
*RES
1 cfg[130] cfg\[130\]:2 132.511000
2 cfg[130] u_sm___154_:S0 0.000000
*END

*D_NET cfg\[131\] 3.087587
*CONN
*P cfg\[131\] B
*I u_sm___154_:S1 B
*CAP
1 cfg\[131\]:2 2.971019
2 cfg\[131\]:2 cfg\[132\]:2 0.007930
3 cfg\[131\]:2 cfg\[138\]:2 0.006244
4 cfg\[131\]:2 e_in\[0\]:2 0.002624
5 cfg\[131\]:2 e_in\[1\]:2 0.002624
6 cfg\[131\]:2 e_in\[2\]:2 0.002624
7 cfg\[131\]:2 e_in\[3\]:2 0.002624
8 cfg\[131\]:2 lut_in\[2\]:2 0.002624
9 cfg\[131\]:2 lut_in\[3\]:2 0.002624
10 cfg\[131\]:2 lut_in\[5\]:2 0.005276
11 cfg\[131\]:2 n_in\[0\]:2 0.002624
12 cfg\[131\]:2 n_in\[1\]:2 0.007580
13 cfg\[131\]:2 n_in\[2\]:2 0.002624
14 cfg\[131\]:2 n_in\[3\]:2 0.005247
15 cfg\[131\]:2 s_in\[0\]:2 0.010554
16 cfg\[131\]:2 s_in\[1\]:2 0.006061
17 cfg\[131\]:2 s_in\[2\]:2 0.006244
18 cfg\[131\]:2 s_in\[3\]:2 0.008205
19 cfg\[131\]:2 w_in\[0\]:2 0.008867
20 cfg\[131\]:2 w_in\[1\]:2 0.002624
21 cfg\[131\]:2 w_in\[2\]:2 0.009864
22 cfg\[131\]:2 w_in\[3\]:2 0.010880
*RES
1 cfg[131] cfg\[131\]:2 51.306900
2 cfg[131] u_sm___154_:S1 0.000000
*END

*D_NET cfg\[132\] 1.839610
*CONN
*P cfg\[132\] B
*I u_sm___155_:S0 B
*CAP
1 cfg\[132\]:2 1.786273
2 cfg\[132\]:2 cfg\[133\]:2 0.002624
3 cfg\[132\]:2 cfg\[138\]:2 0.006244
4 cfg\[132\]:2 e_in\[0\]:2 0.004217
5 cfg\[132\]:2 e_in\[1\]:2 0.004310
6 cfg\[132\]:2 e_in\[3\]:2 0.002624
7 cfg\[132\]:2 n_in\[0\]:2 0.002624
8 cfg\[132\]:2 n_in\[2\]:2 0.002624
9 cfg\[132\]:2 s_in\[0\]:2 0.003206
10 cfg\[132\]:2 s_in\[1\]:2 0.002624
11 cfg\[132\]:2 s_in\[2\]:2 0.002624
12 cfg\[132\]:2 s_in\[3\]:2 0.002624
13 cfg\[132\]:2 w_in\[0\]:2 0.005501
14 cfg\[132\]:2 w_in\[2\]:2 0.002624
15 cfg\[132\]:2 w_in\[3\]:2 0.008867
*RES
1 cfg[132] cfg\[132\]:2 124.059100
2 cfg[132] u_sm___155_:S0 0.000000
*END

*D_NET cfg\[133\] 1.571889
*CONN
*P cfg\[133\] B
*I u_sm___155_:S1 B
*CAP
1 cfg\[133\]:2 1.497565
2 cfg\[133\]:2 cfg\[138\]:2 0.006244
3 cfg\[133\]:2 cfg\[139\]:2 0.003620
4 cfg\[133\]:2 cfg\[144\]:2 0.006244
5 cfg\[133\]:2 cfg\[145\]:2 0.003620
6 cfg\[133\]:2 n_in\[3\]:2 0.006244
7 cfg\[133\]:2 s_in\[0\]:2 0.008256
8 cfg\[133\]:2 s_in\[1\]:2 0.002624
9 cfg\[133\]:2 s_in\[2\]:2 0.003620
10 cfg\[133\]:2 s_in\[3\]:2 0.007240
11 cfg\[133\]:2 w_in\[0\]:2 0.006757
12 cfg\[133\]:2 w_in\[1\]:2 0.007240
13 cfg\[133\]:2 w_in\[3\]:2 0.012615
*RES
1 cfg[133] cfg\[133\]:2 34.413800
2 cfg[133] u_sm___155_:S1 0.000000
*END

*D_NET cfg\[134\] 2.354392
*CONN
*P cfg\[134\] B
*I u_sm___156_:S0 B
*CAP
1 cfg\[134\]:2 2.238282
2 cfg\[134\]:2 cfg\[135\]:2 0.002624
3 cfg\[134\]:2 cfg\[138\]:2 0.003620
4 cfg\[134\]:2 cfg\[139\]:2 0.003620
5 cfg\[134\]:2 cfg\[142\]:2 0.003137
6 cfg\[134\]:2 cfg\[144\]:2 0.003620
7 cfg\[134\]:2 cfg\[145\]:2 0.003620
8 cfg\[134\]:2 cfg\[6\]:2 0.002624
9 cfg\[134\]:2 e_in\[0\]:2 0.003620
10 cfg\[134\]:2 e_in\[1\]:2 0.006244
11 cfg\[134\]:2 e_in\[2\]:2 0.002624
12 cfg\[134\]:2 e_in\[3\]:2 0.003620
13 cfg\[134\]:2 g_slice_3__u_slice___05_:2 0.004310
14 cfg\[134\]:2 lut_in\[14\]:2 0.003620
15 cfg\[134\]:2 n_in\[0\]:2 0.003620
16 cfg\[134\]:2 n_in\[1\]:2 0.002624
17 cfg\[134\]:2 n_in\[2\]:2 0.008033
18 cfg\[134\]:2 n_in\[3\]:2 0.003620
19 cfg\[134\]:2 s_in\[0\]:2 0.003620
20 cfg\[134\]:2 s_in\[1\]:2 0.010118
21 cfg\[134\]:2 s_in\[2\]:2 0.003620
22 cfg\[134\]:2 s_in\[3\]:2 0.003620
23 cfg\[134\]:2 s_out\[3\]:2 0.007563
24 cfg\[134\]:2 w_in\[0\]:2 0.003620
25 cfg\[134\]:2 w_in\[1\]:2 0.012905
26 cfg\[134\]:2 w_in\[2\]:2 0.002624
27 cfg\[134\]:2 w_in\[3\]:2 0.003620
*RES
1 cfg[134] cfg\[134\]:2 120.853800
2 cfg[134] u_sm___156_:S0 0.000000
*END

*D_NET cfg\[135\] 2.019652
*CONN
*P cfg\[135\] B
*I u_sm___156_:S1 B
*CAP
1 cfg\[135\]:2 1.906129
2 cfg\[135\]:2 cfg\[138\]:2 0.003620
3 cfg\[135\]:2 cfg\[139\]:2 0.003620
4 cfg\[135\]:2 cfg\[142\]:2 0.003620
5 cfg\[135\]:2 cfg\[143\]:2 0.003620
6 cfg\[135\]:2 cfg\[144\]:2 0.003620
7 cfg\[135\]:2 cfg\[145\]:2 0.003620
8 cfg\[135\]:2 cfg\[52\]:2 0.009285
9 cfg\[135\]:2 e_in\[0\]:2 0.003620
10 cfg\[135\]:2 e_in\[1\]:2 0.002624
11 cfg\[135\]:2 e_in\[3\]:2 0.003620
12 cfg\[135\]:2 lut_in\[13\]:2 0.005068
13 cfg\[135\]:2 lut_in\[14\]:2 0.003620
14 cfg\[135\]:2 n_in\[0\]:2 0.003620
15 cfg\[135\]:2 n_in\[1\]:2 0.002624
16 cfg\[135\]:2 n_in\[2\]:2 0.003620
17 cfg\[135\]:2 n_in\[3\]:2 0.003620
18 cfg\[135\]:2 s_in\[0\]:2 0.003620
19 cfg\[135\]:2 s_in\[1\]:2 0.003620
20 cfg\[135\]:2 s_in\[2\]:2 0.003620
21 cfg\[135\]:2 s_in\[3\]:2 0.008688
22 cfg\[135\]:2 s_out\[3\]:2 0.007563
23 cfg\[135\]:2 w_in\[0\]:2 0.010136
24 cfg\[135\]:2 w_in\[1\]:2 0.009615
25 cfg\[135\]:2 w_in\[3\]:2 0.003620
*RES
1 cfg[135] cfg\[135\]:2 34.464100
2 cfg[135] u_sm___156_:S1 0.000000
*END

*D_NET cfg\[136\] 2.115113
*CONN
*P cfg\[136\] B
*I u_sm___157_:S0 B
*CAP
1 cfg\[136\]:2 2.010672
2 cfg\[136\]:2 cfg\[137\]:2 0.002624
3 cfg\[136\]:2 cfg\[138\]:2 0.003620
4 cfg\[136\]:2 cfg\[139\]:2 0.002624
5 cfg\[136\]:2 cfg\[140\]:2 0.000582
6 cfg\[136\]:2 cfg\[141\]:2 0.004637
7 cfg\[136\]:2 cfg\[142\]:2 0.003620
8 cfg\[136\]:2 cfg\[143\]:2 0.002624
9 cfg\[136\]:2 cfg\[144\]:2 0.003620
10 cfg\[136\]:2 cfg\[145\]:2 0.002624
11 cfg\[136\]:2 cfg\[52\]:2 0.009839
12 cfg\[136\]:2 cfg\[6\]:2 0.004310
13 cfg\[136\]:2 e_in\[0\]:2 0.014911
14 cfg\[136\]:2 e_in\[1\]:2 0.002624
15 cfg\[136\]:2 e_in\[3\]:2 0.002624
16 cfg\[136\]:2 lut_in\[12\]:2 0.002718
17 cfg\[136\]:2 lut_in\[13\]:2 0.002624
18 cfg\[136\]:2 lut_in\[14\]:2 0.002624
19 cfg\[136\]:2 n_in\[0\]:2 0.007580
20 cfg\[136\]:2 n_in\[3\]:2 0.002624
21 cfg\[136\]:2 s_in\[0\]:2 0.002624
22 cfg\[136\]:2 s_in\[2\]:2 0.000582
23 cfg\[136\]:2 s_in\[3\]:2 0.003620
24 cfg\[136\]:2 w_in\[0\]:2 0.014942
25 cfg\[136\]:2 w_in\[3\]:2 0.003620
*RES
1 cfg[136] cfg\[136\]:2 124.388700
2 cfg[136] u_sm___157_:S0 0.000000
*END

*D_NET cfg\[137\] 1.714319
*CONN
*P cfg\[137\] B
*I u_sm___157_:S1 B
*CAP
1 cfg\[137\]:2 1.625134
2 cfg\[137\]:2 cfg\[138\]:2 0.003620
3 cfg\[137\]:2 cfg\[139\]:2 0.003620
4 cfg\[137\]:2 cfg\[140\]:2 0.003620
5 cfg\[137\]:2 cfg\[141\]:2 0.003620
6 cfg\[137\]:2 cfg\[142\]:2 0.003620
7 cfg\[137\]:2 cfg\[143\]:2 0.003620
8 cfg\[137\]:2 cfg\[144\]:2 0.003620
9 cfg\[137\]:2 cfg\[145\]:2 0.003620
10 cfg\[137\]:2 cfg\[52\]:2 0.003620
11 cfg\[137\]:2 e_in\[0\]:2 0.003620
12 cfg\[137\]:2 e_in\[3\]:2 0.003620
13 cfg\[137\]:2 lut_in\[12\]:2 0.005068
14 cfg\[137\]:2 lut_in\[13\]:2 0.003620
15 cfg\[137\]:2 lut_in\[14\]:2 0.003620
16 cfg\[137\]:2 n_in\[0\]:2 0.003620
17 cfg\[137\]:2 n_in\[3\]:2 0.003620
18 cfg\[137\]:2 s_in\[0\]:2 0.003620
19 cfg\[137\]:2 s_in\[2\]:2 0.004637
20 cfg\[137\]:2 s_in\[3\]:2 0.003620
21 cfg\[137\]:2 s_out\[3\]:2 0.007563
22 cfg\[137\]:2 w_in\[0\]:2 0.003620
23 cfg\[137\]:2 w_in\[2\]:2 0.003137
24 cfg\[137\]:2 w_in\[3\]:2 0.003620
*RES
1 cfg[137] cfg\[137\]:2 30.573300
2 cfg[137] u_sm___157_:S1 0.000000
*END

*D_NET cfg\[138\] 2.232538
*CONN
*P cfg\[138\] B
*I u_sm___158_:S0 B
*CAP
1 cfg\[138\]:2 2.196841
2 cfg\[138\]:2 e_in\[0\]:2 0.002624
3 cfg\[138\]:2 e_in\[3\]:2 0.002624
4 cfg\[138\]:2 n_in\[0\]:2 0.002624
5 cfg\[138\]:2 n_in\[2\]:2 0.002624
6 cfg\[138\]:2 s_in\[0\]:2 0.004310
7 cfg\[138\]:2 s_in\[1\]:2 0.002624
8 cfg\[138\]:2 s_in\[2\]:2 0.002624
9 cfg\[138\]:2 s_in\[3\]:2 0.002624
10 cfg\[138\]:2 w_in\[0\]:2 0.002624
11 cfg\[138\]:2 w_in\[2\]:2 0.002624
12 cfg\[138\]:2 w_in\[3\]:2 0.007771
*RES
1 cfg[138] cfg\[138\]:2 130.498500
2 cfg[138] u_sm___158_:S0 0.000000
*END

*D_NET cfg\[139\] 1.915636
*CONN
*P cfg\[139\] B
*I u_sm___158_:S1 B
*CAP
1 cfg\[139\]:2 1.824233
2 cfg\[139\]:2 cfg\[140\]:2 0.006244
3 cfg\[139\]:2 cfg\[141\]:2 0.003620
4 cfg\[139\]:2 cfg\[142\]:2 0.006244
5 cfg\[139\]:2 cfg\[143\]:2 0.003620
6 cfg\[139\]:2 cfg\[144\]:2 0.006244
7 cfg\[139\]:2 cfg\[145\]:2 0.003620
8 cfg\[139\]:2 cfg\[52\]:2 0.003186
9 cfg\[139\]:2 cfg\[53\]:2 0.009285
10 cfg\[139\]:2 cfg\[54\]:2 0.006244
11 cfg\[139\]:2 lut_in\[12\]:2 0.002624
12 cfg\[139\]:2 n_in\[3\]:2 0.006244
13 cfg\[139\]:2 s_in\[0\]:2 0.003620
14 cfg\[139\]:2 s_in\[1\]:2 0.006244
15 cfg\[139\]:2 s_in\[2\]:2 0.002624
16 cfg\[139\]:2 s_in\[3\]:2 0.007240
17 cfg\[139\]:2 w_in\[0\]:2 0.002624
18 cfg\[139\]:2 w_in\[1\]:2 0.003620
19 cfg\[139\]:2 w_in\[3\]:2 0.008256
*RES
1 cfg[139] cfg\[139\]:2 38.590100
2 cfg[139] u_sm___158_:S1 0.000000
*END

*D_NET cfg\[13\] 4.267928
*CONN
*P cfg\[13\] B
*I g_slice_0__u_slice___12_:A1 B
*CAP
1 cfg\[13\]:2 4.049224
2 cfg\[13\]:2 cfg\[140\]:2 0.003620
3 cfg\[13\]:2 cfg\[141\]:2 0.003620
4 cfg\[13\]:2 cfg\[142\]:2 0.003620
5 cfg\[13\]:2 cfg\[143\]:2 0.003620
6 cfg\[13\]:2 cfg\[144\]:2 0.003620
7 cfg\[13\]:2 cfg\[145\]:2 0.003620
8 cfg\[13\]:2 cfg\[147\]:2 0.003137
9 cfg\[13\]:2 cfg\[14\]:2 0.006029
10 cfg\[13\]:2 cfg\[15\]:2 0.003620
11 cfg\[13\]:2 cfg\[51\]:2 0.007563
12 cfg\[13\]:2 cfg\[53\]:2 0.003620
13 cfg\[13\]:2 cfg\[54\]:2 0.003620
14 cfg\[13\]:2 cfg\[5\]:2 0.007563
15 cfg\[13\]:2 cfg\[68\]:2 0.003620
16 cfg\[13\]:2 cfg\[69\]:2 0.003620
17 cfg\[13\]:2 cfg\[6\]:2 0.003620
18 cfg\[13\]:2 cfg\[70\]:2 0.003672
19 cfg\[13\]:2 cfg\[71\]:2 0.003620
20 cfg\[13\]:2 e_in\[0\]:2 0.003620
21 cfg\[13\]:2 e_in\[1\]:2 0.007563
22 cfg\[13\]:2 e_in\[3\]:2 0.006757
23 cfg\[13\]:2 g_slice_3__u_slice___02_:2 0.003137
24 cfg\[13\]:2 g_slice_3__u_slice___03_:2 0.005068
25 cfg\[13\]:2 g_slice_3__u_slice___04_:2 0.003137
26 cfg\[13\]:2 g_slice_3__u_slice___05_:2 0.007563
27 cfg\[13\]:2 lut_in\[11\]:2 0.007563
28 cfg\[13\]:2 lut_in\[12\]:2 0.003620
29 cfg\[13\]:2 lut_in\[13\]:2 0.003620
30 cfg\[13\]:2 lut_in\[14\]:2 0.005068
31 cfg\[13\]:2 lut_in\[6\]:2 0.003137
32 cfg\[13\]:2 n_in\[0\]:2 0.007563
33 cfg\[13\]:2 n_in\[2\]:2 0.007777
34 cfg\[13\]:2 n_in\[3\]:2 0.003137
35 cfg\[13\]:2 s_in\[1\]:2 0.007563
36 cfg\[13\]:2 s_in\[3\]:2 0.007563
37 cfg\[13\]:2 s_out\[3\]:2 0.007563
38 cfg\[13\]:2 u_sm___003_:2 0.003137
39 cfg\[13\]:2 u_sm___063_:2 0.015340
40 cfg\[13\]:2 u_sm___065_:2 0.003620
41 cfg\[13\]:2 u_sm___067_:2 0.003620
42 cfg\[13\]:2 w_in\[0\]:2 0.003620
43 cfg\[13\]:2 w_in\[1\]:2 0.007563
44 cfg\[13\]:2 w_in\[2\]:2 0.002624
45 cfg\[13\]:2 w_in\[3\]:2 0.003137
*RES
1 cfg[13] cfg\[13\]:2 33.423900
2 cfg[13] g_slice_0__u_slice___12_:A1 0.000000
*END

*D_NET cfg\[140\] 1.791434
*CONN
*P cfg\[140\] B
*I u_sm___159_:S0 B
*CAP
1 cfg\[140\]:2 1.734120
2 cfg\[140\]:2 cfg\[141\]:2 0.002624
3 cfg\[140\]:2 cfg\[142\]:2 0.003620
4 cfg\[140\]:2 cfg\[143\]:2 0.002624
5 cfg\[140\]:2 cfg\[144\]:2 0.002624
6 cfg\[140\]:2 cfg\[145\]:2 0.002624
7 cfg\[140\]:2 cfg\[146\]:2 0.006244
8 cfg\[140\]:2 cfg\[53\]:2 0.006244
9 cfg\[140\]:2 cfg\[54\]:2 0.006244
10 cfg\[140\]:2 e_in\[0\]:2 0.002624
11 cfg\[140\]:2 e_in\[3\]:2 0.004310
12 cfg\[140\]:2 n_in\[3\]:2 0.002624
13 cfg\[140\]:2 s_in\[0\]:2 0.002624
14 cfg\[140\]:2 s_in\[3\]:2 0.006934
15 cfg\[140\]:2 w_in\[0\]:2 0.002726
16 cfg\[140\]:2 w_in\[3\]:2 0.002624
*RES
1 cfg[140] cfg\[140\]:2 122.978300
2 cfg[140] u_sm___159_:S0 0.000000
*END

*D_NET cfg\[141\] 1.486125
*CONN
*P cfg\[141\] B
*I u_sm___159_:S1 B
*CAP
1 cfg\[141\]:2 1.450289
2 cfg\[141\]:2 cfg\[142\]:2 0.003620
3 cfg\[141\]:2 cfg\[144\]:2 0.003620
4 cfg\[141\]:2 cfg\[145\]:2 0.003620
5 cfg\[141\]:2 cfg\[146\]:2 0.006244
6 cfg\[141\]:2 cfg\[147\]:2 0.003620
7 cfg\[141\]:2 cfg\[53\]:2 0.006244
8 cfg\[141\]:2 cfg\[54\]:2 0.006244
9 cfg\[141\]:2 s_in\[0\]:2 0.002624
*RES
1 cfg[141] cfg\[141\]:2 35.339200
2 cfg[141] u_sm___159_:S1 0.000000
*END

*D_NET cfg\[142\] 2.226545
*CONN
*P cfg\[142\] B
*I u_sm___160_:S0 B
*CAP
1 cfg\[142\]:2 2.186540
2 cfg\[142\]:2 cfg\[144\]:2 0.002624
3 cfg\[142\]:2 cfg\[145\]:2 0.002624
4 cfg\[142\]:2 e_in\[0\]:2 0.002624
5 cfg\[142\]:2 e_in\[1\]:2 0.000582
6 cfg\[142\]:2 e_in\[3\]:2 0.004310
7 cfg\[142\]:2 n_in\[3\]:2 0.002624
8 cfg\[142\]:2 s_in\[0\]:2 0.002624
9 cfg\[142\]:2 s_in\[1\]:2 0.002624
10 cfg\[142\]:2 s_in\[2\]:2 0.002624
11 cfg\[142\]:2 s_in\[3\]:2 0.004310
12 cfg\[142\]:2 w_in\[0\]:2 0.004310
13 cfg\[142\]:2 w_in\[1\]:2 0.005501
14 cfg\[142\]:2 w_in\[3\]:2 0.002624
*RES
1 cfg[142] cfg\[142\]:2 130.142800
2 cfg[142] u_sm___160_:S0 0.000000
*END

*D_NET cfg\[143\] 1.997181
*CONN
*P cfg\[143\] B
*I u_sm___160_:S1 B
*CAP
1 cfg\[143\]:2 1.931974
2 cfg\[143\]:2 cfg\[144\]:2 0.003620
3 cfg\[143\]:2 cfg\[145\]:2 0.003620
4 cfg\[143\]:2 cfg\[146\]:2 0.006244
5 cfg\[143\]:2 cfg\[147\]:2 0.003620
6 cfg\[143\]:2 cfg\[52\]:2 0.004310
7 cfg\[143\]:2 cfg\[53\]:2 0.006244
8 cfg\[143\]:2 cfg\[54\]:2 0.006244
9 cfg\[143\]:2 cfg\[59\]:2 0.009285
10 cfg\[143\]:2 e_in\[3\]:2 0.004310
11 cfg\[143\]:2 s_in\[0\]:2 0.002624
12 cfg\[143\]:2 s_in\[2\]:2 0.012462
13 cfg\[143\]:2 w_in\[0\]:2 0.002624
*RES
1 cfg[143] cfg\[143\]:2 40.473900
2 cfg[143] u_sm___160_:S1 0.000000
*END

*D_NET cfg\[144\] 2.679127
*CONN
*P cfg\[144\] B
*I u_sm___166_:S0 B
*CAP
1 cfg\[144\]:2 2.610329
2 cfg\[144\]:2 cfg\[145\]:2 0.002624
3 cfg\[144\]:2 cfg\[146\]:2 0.006244
4 cfg\[144\]:2 cfg\[53\]:2 0.006244
5 cfg\[144\]:2 cfg\[54\]:2 0.006244
6 cfg\[144\]:2 e_in\[0\]:2 0.002624
7 cfg\[144\]:2 e_in\[3\]:2 0.002624
8 cfg\[144\]:2 n_in\[0\]:2 0.004310
9 cfg\[144\]:2 n_in\[3\]:2 0.011244
10 cfg\[144\]:2 s_in\[0\]:2 0.002624
11 cfg\[144\]:2 s_in\[1\]:2 0.000582
12 cfg\[144\]:2 s_in\[2\]:2 0.002624
13 cfg\[144\]:2 s_in\[3\]:2 0.005247
14 cfg\[144\]:2 w_in\[0\]:2 0.005247
15 cfg\[144\]:2 w_in\[1\]:2 0.007692
16 cfg\[144\]:2 w_in\[3\]:2 0.002624
*RES
1 cfg[144] cfg\[144\]:2 132.762000
2 cfg[144] u_sm___166_:S0 0.000000
*END

*D_NET cfg\[145\] 2.423986
*CONN
*P cfg\[145\] B
*I u_sm___166_:S1 B
*CAP
1 cfg\[145\]:2 2.357469
2 cfg\[145\]:2 cfg\[146\]:2 0.006244
3 cfg\[145\]:2 cfg\[147\]:2 0.003620
4 cfg\[145\]:2 cfg\[53\]:2 0.006244
5 cfg\[145\]:2 cfg\[54\]:2 0.006244
6 cfg\[145\]:2 lut_in\[12\]:2 0.003186
7 cfg\[145\]:2 n_in\[3\]:2 0.004310
8 cfg\[145\]:2 s_in\[0\]:2 0.005247
9 cfg\[145\]:2 s_in\[1\]:2 0.003620
10 cfg\[145\]:2 s_in\[2\]:2 0.002624
11 cfg\[145\]:2 s_in\[3\]:2 0.005068
12 cfg\[145\]:2 w_in\[0\]:2 0.005247
13 cfg\[145\]:2 w_in\[1\]:2 0.006244
14 cfg\[145\]:2 w_in\[2\]:2 0.008619
*RES
1 cfg[145] cfg\[145\]:2 46.519500
2 cfg[145] u_sm___166_:S1 0.000000
*END

*D_NET cfg\[146\] 1.847043
*CONN
*P cfg\[146\] B
*I u_sm___167_:S0 B
*CAP
1 cfg\[146\]:2 1.829545
2 cfg\[146\]:2 cfg\[147\]:2 0.002624
3 cfg\[146\]:2 cfg\[53\]:2 0.003620
4 cfg\[146\]:2 cfg\[54\]:2 0.002624
5 cfg\[146\]:2 e_in\[0\]:2 0.004310
6 cfg\[146\]:2 e_in\[3\]:2 0.004217
7 cfg\[146\]:2 w_in\[3\]:2 0.000103
*RES
1 cfg[146] cfg\[146\]:2 125.189500
2 cfg[146] u_sm___167_:S0 0.000000
*END

*D_NET cfg\[147\] 1.576451
*CONN
*P cfg\[147\] B
*I u_sm___167_:S1 B
*CAP
1 cfg\[147\]:2 1.544108
2 cfg\[147\]:2 cfg\[53\]:2 0.003620
3 cfg\[147\]:2 cfg\[54\]:2 0.003620
4 cfg\[147\]:2 cfg\[55\]:2 0.012615
5 cfg\[147\]:2 cfg\[56\]:2 0.006244
6 cfg\[147\]:2 cfg\[57\]:2 0.003620
7 cfg\[147\]:2 lut_in\[12\]:2 0.002624
*RES
1 cfg[147] cfg\[147\]:2 37.550700
2 cfg[147] u_sm___167_:S1 0.000000
*END

*D_NET cfg\[148\] 1.648037
*CONN
*P cfg\[148\] B
*I u_sm___168_:S0 B
*CAP
1 cfg\[148\]:2 1.588047
2 cfg\[148\]:2 cfg\[149\]:2 0.002624
3 cfg\[148\]:2 cfg\[14\]:2 0.003137
4 cfg\[148\]:2 cfg\[93\]:2 0.002624
5 cfg\[148\]:2 e_in\[0\]:2 0.005247
6 cfg\[148\]:2 n_in\[0\]:2 0.005247
7 cfg\[148\]:2 n_out\[3\]:2 0.002624
8 cfg\[148\]:2 s_in\[0\]:2 0.002878
9 cfg\[148\]:2 s_in\[1\]:2 0.002624
10 cfg\[148\]:2 s_in\[2\]:2 0.002624
11 cfg\[148\]:2 s_in\[3\]:2 0.002624
12 cfg\[148\]:2 s_out\[0\]:2 0.003620
13 cfg\[148\]:2 s_out\[1\]:2 0.010633
14 cfg\[148\]:2 s_out\[2\]:2 0.003620
15 cfg\[148\]:2 s_out\[3\]:2 0.007240
16 cfg\[148\]:2 w_in\[0\]:2 0.002624
*RES
1 cfg[148] cfg\[148\]:2 119.904000
2 cfg[148] u_sm___168_:S0 0.000000
*END

*D_NET cfg\[149\] 1.117755
*CONN
*P cfg\[149\] B
*I u_sm___168_:S1 B
*CAP
1 cfg\[149\]:2 1.079662
2 cfg\[149\]:2 e_in\[0\]:2 0.013176
3 cfg\[149\]:2 n_in\[0\]:2 0.007580
4 cfg\[149\]:2 s_in\[1\]:2 0.002624
5 cfg\[149\]:2 s_in\[2\]:2 0.002624
6 cfg\[149\]:2 s_in\[3\]:2 0.002624
7 cfg\[149\]:2 s_out\[0\]:2 0.002624
8 cfg\[149\]:2 s_out\[2\]:2 0.002624
9 cfg\[149\]:2 s_out\[3\]:2 0.004217
*RES
1 cfg[149] cfg\[149\]:2 35.482000
2 cfg[149] u_sm___168_:S1 0.000000
*END

*D_NET cfg\[14\] 6.951571
*CONN
*P cfg\[14\] B
*I g_slice_0__u_slice___12_:A2 B
*CAP
1 cfg\[14\]:2 6.610671
2 cfg\[14\]:2 cfg\[15\]:2 0.011183
3 cfg\[14\]:2 cfg\[51\]:2 0.007563
4 cfg\[14\]:2 cfg\[52\]:2 0.007777
5 cfg\[14\]:2 cfg\[5\]:2 0.003620
6 cfg\[14\]:2 cfg\[67\]:2 0.007563
7 cfg\[14\]:2 cfg\[76\]:2 0.003672
8 cfg\[14\]:2 cfg\[78\]:2 0.000827
9 cfg\[14\]:2 cfg\[79\]:2 0.003620
10 cfg\[14\]:2 cfg\[7\]:2 0.003620
11 cfg\[14\]:2 cfg\[80\]:2 0.003620
12 cfg\[14\]:2 cfg\[81\]:2 0.014721
13 cfg\[14\]:2 cfg\[82\]:2 0.003620
14 cfg\[14\]:2 cfg\[83\]:2 0.003620
15 cfg\[14\]:2 cfg\[84\]:2 0.003620
16 cfg\[14\]:2 cfg\[85\]:2 0.003620
17 cfg\[14\]:2 cfg\[86\]:2 0.003620
18 cfg\[14\]:2 cfg\[87\]:2 0.008205
19 cfg\[14\]:2 cfg\[88\]:2 0.003620
20 cfg\[14\]:2 cfg\[89\]:2 0.003620
21 cfg\[14\]:2 cfg\[8\]:2 0.003620
22 cfg\[14\]:2 cfg\[90\]:2 0.003620
23 cfg\[14\]:2 cfg\[91\]:2 0.003620
24 cfg\[14\]:2 cfg\[92\]:2 0.003620
25 cfg\[14\]:2 cfg\[93\]:2 0.003620
26 cfg\[14\]:2 cfg\[94\]:2 0.003620
27 cfg\[14\]:2 cfg\[95\]:2 0.003620
28 cfg\[14\]:2 cfg\[96\]:2 0.003620
29 cfg\[14\]:2 cfg\[97\]:2 0.003620
30 cfg\[14\]:2 cfg\[98\]:2 0.003620
31 cfg\[14\]:2 cfg\[99\]:2 0.003620
32 cfg\[14\]:2 cfg\[9\]:2 0.003620
33 cfg\[14\]:2 clk:2 0.003620
34 cfg\[14\]:2 e_in\[0\]:2 0.018423
35 cfg\[14\]:2 e_in\[1\]:2 0.011183
36 cfg\[14\]:2 e_in\[2\]:2 0.003620
37 cfg\[14\]:2 e_in\[3\]:2 0.011183
38 cfg\[14\]:2 e_out\[0\]:2 0.008205
39 cfg\[14\]:2 e_out\[1\]:2 0.003620
40 cfg\[14\]:2 e_out\[3\]:2 0.003620
41 cfg\[14\]:2 g_slice_3__u_slice___05_:2 0.007563
42 cfg\[14\]:2 lut_in\[11\]:2 0.007563
43 cfg\[14\]:2 n_in\[0\]:2 0.011183
44 cfg\[14\]:2 n_in\[1\]:2 0.003620
45 cfg\[14\]:2 n_in\[2\]:2 0.011183
46 cfg\[14\]:2 n_in\[3\]:2 0.003620
47 cfg\[14\]:2 n_out\[2\]:2 0.002357
48 cfg\[14\]:2 n_out\[3\]:2 0.003620
49 cfg\[14\]:2 s_in\[1\]:2 0.014803
50 cfg\[14\]:2 s_in\[2\]:2 0.011183
51 cfg\[14\]:2 s_in\[3\]:2 0.011183
52 cfg\[14\]:2 s_out\[0\]:2 0.003620
53 cfg\[14\]:2 s_out\[1\]:2 0.003620
54 cfg\[14\]:2 s_out\[2\]:2 0.003620
55 cfg\[14\]:2 u_sm___020_:2 0.003620
56 cfg\[14\]:2 u_sm___022_:2 0.003620
57 cfg\[14\]:2 u_sm___023_:2 0.003620
58 cfg\[14\]:2 u_sm___030_:2 0.005068
59 cfg\[14\]:2 u_sm___031_:2 0.003620
60 cfg\[14\]:2 w_in\[0\]:2 0.003620
61 cfg\[14\]:2 w_in\[1\]:2 0.007563
62 cfg\[14\]:2 w_in\[2\]:2 0.003186
*RES
1 cfg[14] cfg\[14\]:2 57.497400
2 cfg[14] g_slice_0__u_slice___12_:A2 0.000000
*END

*D_NET cfg\[150\] 1.918525
*CONN
*P cfg\[150\] B
*I u_sm___169_:S0 B
*CAP
1 cfg\[150\]:2 1.873242
2 cfg\[150\]:2 cfg\[151\]:2 0.006244
3 cfg\[150\]:2 cfg\[152\]:2 0.006244
4 cfg\[150\]:2 cfg\[153\]:2 0.007930
5 cfg\[150\]:2 e_in\[0\]:2 0.002624
6 cfg\[150\]:2 n_in\[0\]:2 0.002624
7 cfg\[150\]:2 n_out\[3\]:2 0.002624
8 cfg\[150\]:2 s_in\[0\]:2 0.002624
9 cfg\[150\]:2 s_in\[1\]:2 0.002624
10 cfg\[150\]:2 s_in\[3\]:2 0.002624
11 cfg\[150\]:2 s_out\[2\]:2 0.003620
12 cfg\[150\]:2 w_in\[0\]:2 0.005501
*RES
1 cfg[150] cfg\[150\]:2 123.239200
2 cfg[150] u_sm___169_:S0 0.000000
*END

*D_NET cfg\[151\] 1.461014
*CONN
*P cfg\[151\] B
*I u_sm___169_:S1 B
*CAP
1 cfg\[151\]:2 1.416318
2 cfg\[151\]:2 cfg\[153\]:2 0.003620
3 cfg\[151\]:2 cfg\[155\]:2 0.003137
4 cfg\[151\]:2 cfg\[93\]:2 0.004310
5 cfg\[151\]:2 e_in\[0\]:2 0.003620
6 cfg\[151\]:2 n_in\[0\]:2 0.012905
7 cfg\[151\]:2 s_in\[1\]:2 0.003620
8 cfg\[151\]:2 s_in\[3\]:2 0.003620
9 cfg\[151\]:2 s_out\[0\]:2 0.006244
10 cfg\[151\]:2 s_out\[2\]:2 0.003620
*RES
1 cfg[151] cfg\[151\]:2 33.245000
2 cfg[151] u_sm___169_:S1 0.000000
*END

*D_NET cfg\[152\] 2.285033
*CONN
*P cfg\[152\] B
*I u_sm___170_:S0 B
*CAP
1 cfg\[152\]:2 2.209736
2 cfg\[152\]:2 cfg\[153\]:2 0.003620
3 cfg\[152\]:2 cfg\[155\]:2 0.029035
4 cfg\[152\]:2 cfg\[156\]:2 0.003620
5 cfg\[152\]:2 cfg\[157\]:2 0.008010
6 cfg\[152\]:2 e_in\[1\]:2 0.004310
7 cfg\[152\]:2 e_in\[2\]:2 0.002624
8 cfg\[152\]:2 n_in\[0\]:2 0.002624
9 cfg\[152\]:2 n_in\[1\]:2 0.005247
10 cfg\[152\]:2 n_out\[3\]:2 0.002624
11 cfg\[152\]:2 s_in\[3\]:2 0.004461
12 cfg\[152\]:2 s_out\[2\]:2 0.003620
13 cfg\[152\]:2 u_sm___032_:2 0.002624
14 cfg\[152\]:2 w_in\[1\]:2 0.002878
*RES
1 cfg[152] cfg\[152\]:2 125.963100
2 cfg[152] u_sm___170_:S0 0.000000
*END

*D_NET cfg\[153\] 1.655221
*CONN
*P cfg\[153\] B
*I u_sm___170_:S1 B
*CAP
1 cfg\[153\]:2 1.596316
2 cfg\[153\]:2 cfg\[156\]:2 0.003137
3 cfg\[153\]:2 cfg\[93\]:2 0.003137
4 cfg\[153\]:2 e_in\[0\]:2 0.003620
5 cfg\[153\]:2 e_in\[1\]:2 0.002624
6 cfg\[153\]:2 n_in\[0\]:2 0.007240
7 cfg\[153\]:2 n_out\[3\]:2 0.003620
8 cfg\[153\]:2 s_in\[0\]:2 0.011183
9 cfg\[153\]:2 s_in\[1\]:2 0.007240
10 cfg\[153\]:2 s_in\[3\]:2 0.003620
11 cfg\[153\]:2 s_out\[2\]:2 0.003620
12 cfg\[153\]:2 u_sm___032_:2 0.003620
13 cfg\[153\]:2 w_in\[0\]:2 0.006244
*RES
1 cfg[153] cfg\[153\]:2 33.070900
2 cfg[153] u_sm___170_:S1 0.000000
*END

*D_NET cfg\[154\] 2.580223
*CONN
*P cfg\[154\] B
*I u_sm___171_:S0 B
*CAP
1 cfg\[154\]:2 2.500883
2 cfg\[154\]:2 cfg\[155\]:2 0.006244
3 cfg\[154\]:2 cfg\[156\]:2 0.011825
4 cfg\[154\]:2 cfg\[157\]:2 0.006244
5 cfg\[154\]:2 cfg\[15\]:2 0.003620
6 cfg\[154\]:2 cfg\[16\]:2 0.005068
7 cfg\[154\]:2 cfg\[95\]:2 0.004310
8 cfg\[154\]:2 cfg\[97\]:2 0.004310
9 cfg\[154\]:2 e_in\[1\]:2 0.002624
10 cfg\[154\]:2 e_in\[2\]:2 0.002624
11 cfg\[154\]:2 n_in\[1\]:2 0.006244
12 cfg\[154\]:2 n_out\[3\]:2 0.003620
13 cfg\[154\]:2 s_in\[3\]:2 0.003620
14 cfg\[154\]:2 s_out\[2\]:2 0.003620
15 cfg\[154\]:2 u_sm___032_:2 0.015367
*RES
1 cfg[154] cfg\[154\]:2 125.782500
2 cfg[154] u_sm___171_:S0 0.000000
*END

*D_NET cfg\[155\] 1.943496
*CONN
*P cfg\[155\] B
*I u_sm___171_:S1 B
*CAP
1 cfg\[155\]:2 1.858351
2 cfg\[155\]:2 cfg\[156\]:2 0.003620
3 cfg\[155\]:2 cfg\[157\]:2 0.017423
4 cfg\[155\]:2 e_in\[0\]:2 0.003137
5 cfg\[155\]:2 e_in\[1\]:2 0.002624
6 cfg\[155\]:2 e_in\[2\]:2 0.002624
7 cfg\[155\]:2 n_in\[0\]:2 0.005068
8 cfg\[155\]:2 n_out\[3\]:2 0.003620
9 cfg\[155\]:2 s_in\[0\]:2 0.006747
10 cfg\[155\]:2 s_in\[1\]:2 0.007240
11 cfg\[155\]:2 s_in\[3\]:2 0.019479
12 cfg\[155\]:2 s_out\[2\]:2 0.003620
13 cfg\[155\]:2 u_sm___032_:2 0.003620
14 cfg\[155\]:2 w_in\[0\]:2 0.006323
*RES
1 cfg[155] cfg\[155\]:2 36.816800
2 cfg[155] u_sm___171_:S1 0.000000
*END

*D_NET cfg\[156\] 3.716508
*CONN
*P cfg\[156\] B
*I u_sm___172_:S0 B
*CAP
1 cfg\[156\]:2 3.606302
2 cfg\[156\]:2 cfg\[157\]:2 0.000557
3 cfg\[156\]:2 cfg\[15\]:2 0.003620
4 cfg\[156\]:2 cfg\[51\]:2 0.003620
5 cfg\[156\]:2 cfg\[52\]:2 0.002624
6 cfg\[156\]:2 cfg\[95\]:2 0.006244
7 cfg\[156\]:2 cfg\[97\]:2 0.003620
8 cfg\[156\]:2 cfg\[98\]:2 0.002624
9 cfg\[156\]:2 cfg\[99\]:2 0.002624
10 cfg\[156\]:2 cfg\[9\]:2 0.002624
11 cfg\[156\]:2 clk:2 0.002624
12 cfg\[156\]:2 e_in\[1\]:2 0.003620
13 cfg\[156\]:2 e_in\[2\]:2 0.009864
14 cfg\[156\]:2 e_in\[3\]:2 0.002624
15 cfg\[156\]:2 n_in\[1\]:2 0.011312
16 cfg\[156\]:2 n_in\[2\]:2 0.006244
17 cfg\[156\]:2 n_in\[3\]:2 0.004310
18 cfg\[156\]:2 n_out\[3\]:2 0.006244
19 cfg\[156\]:2 s_in\[1\]:2 0.003137
20 cfg\[156\]:2 s_in\[2\]:2 0.002624
21 cfg\[156\]:2 s_in\[3\]:2 0.009864
22 cfg\[156\]:2 s_out\[2\]:2 0.003620
23 cfg\[156\]:2 u_sm___032_:2 0.003620
24 cfg\[156\]:2 w_in\[1\]:2 0.004217
25 cfg\[156\]:2 w_in\[2\]:2 0.005247
26 cfg\[156\]:2 w_in\[3\]:2 0.002878
*RES
1 cfg[156] cfg\[156\]:2 133.367100
2 cfg[156] u_sm___172_:S0 0.000000
*END

*D_NET cfg\[157\] 3.341612
*CONN
*P cfg\[157\] B
*I u_sm___172_:S1 B
*CAP
1 cfg\[157\]:2 3.247458
2 cfg\[157\]:2 cfg\[15\]:2 0.003672
3 cfg\[157\]:2 cfg\[51\]:2 0.003620
4 cfg\[157\]:2 cfg\[52\]:2 0.002624
5 cfg\[157\]:2 cfg\[95\]:2 0.002624
6 cfg\[157\]:2 cfg\[98\]:2 0.002624
7 cfg\[157\]:2 cfg\[9\]:2 0.002624
8 cfg\[157\]:2 clk:2 0.002624
9 cfg\[157\]:2 e_in\[2\]:2 0.009864
10 cfg\[157\]:2 e_in\[3\]:2 0.005916
11 cfg\[157\]:2 n_in\[1\]:2 0.006244
12 cfg\[157\]:2 n_in\[2\]:2 0.006244
13 cfg\[157\]:2 n_in\[3\]:2 0.013952
14 cfg\[157\]:2 n_out\[3\]:2 0.006244
15 cfg\[157\]:2 s_in\[3\]:2 0.015414
16 cfg\[157\]:2 s_out\[2\]:2 0.003620
17 cfg\[157\]:2 u_sm___032_:2 0.003620
18 cfg\[157\]:2 w_in\[2\]:2 0.002624
*RES
1 cfg[157] cfg\[157\]:2 49.509900
2 cfg[157] u_sm___172_:S1 0.000000
*END

*D_NET cfg\[15\] 5.961396
*CONN
*P cfg\[15\] B
*I g_slice_0__u_slice___12_:A3 B
*CAP
1 cfg\[15\]:2 5.662448
2 cfg\[15\]:2 cfg\[51\]:2 0.003620
3 cfg\[15\]:2 cfg\[52\]:2 0.002624
4 cfg\[15\]:2 cfg\[67\]:2 0.007563
5 cfg\[15\]:2 cfg\[74\]:2 0.005068
6 cfg\[15\]:2 cfg\[75\]:2 0.012837
7 cfg\[15\]:2 cfg\[76\]:2 0.008867
8 cfg\[15\]:2 cfg\[77\]:2 0.003620
9 cfg\[15\]:2 cfg\[78\]:2 0.003620
10 cfg\[15\]:2 cfg\[79\]:2 0.003620
11 cfg\[15\]:2 cfg\[7\]:2 0.003620
12 cfg\[15\]:2 cfg\[80\]:2 0.005068
13 cfg\[15\]:2 cfg\[82\]:2 0.003620
14 cfg\[15\]:2 cfg\[83\]:2 0.003620
15 cfg\[15\]:2 cfg\[85\]:2 0.003620
16 cfg\[15\]:2 cfg\[88\]:2 0.003620
17 cfg\[15\]:2 cfg\[89\]:2 0.008688
18 cfg\[15\]:2 cfg\[8\]:2 0.003620
19 cfg\[15\]:2 cfg\[91\]:2 0.003620
20 cfg\[15\]:2 cfg\[95\]:2 0.003620
21 cfg\[15\]:2 cfg\[97\]:2 0.003620
22 cfg\[15\]:2 cfg\[98\]:2 0.007585
23 cfg\[15\]:2 cfg\[99\]:2 0.003620
24 cfg\[15\]:2 cfg\[9\]:2 0.003620
25 cfg\[15\]:2 clk:2 0.003620
26 cfg\[15\]:2 e_in\[1\]:2 0.003620
27 cfg\[15\]:2 e_in\[2\]:2 0.008995
28 cfg\[15\]:2 e_in\[3\]:2 0.003620
29 cfg\[15\]:2 g_slice_3__u_slice___05_:2 0.003620
30 cfg\[15\]:2 lut_in\[10\]:2 0.002624
31 cfg\[15\]:2 lut_in\[11\]:2 0.003620
32 cfg\[15\]:2 lut_in\[1\]:2 0.003278
33 cfg\[15\]:2 lut_in\[4\]:2 0.002624
34 cfg\[15\]:2 lut_in\[6\]:2 0.003137
35 cfg\[15\]:2 n_in\[0\]:2 0.007240
36 cfg\[15\]:2 n_in\[1\]:2 0.009864
37 cfg\[15\]:2 n_in\[2\]:2 0.003620
38 cfg\[15\]:2 n_in\[3\]:2 0.006244
39 cfg\[15\]:2 n_out\[2\]:2 0.007563
40 cfg\[15\]:2 n_out\[3\]:2 0.003620
41 cfg\[15\]:2 s_in\[0\]:2 0.003620
42 cfg\[15\]:2 s_in\[1\]:2 0.007240
43 cfg\[15\]:2 s_in\[2\]:2 0.014803
44 cfg\[15\]:2 s_in\[3\]:2 0.010860
45 cfg\[15\]:2 s_out\[2\]:2 0.003620
46 cfg\[15\]:2 u_sm___003_:2 0.002624
47 cfg\[15\]:2 u_sm___005_:2 0.005247
48 cfg\[15\]:2 u_sm___006_:2 0.003620
49 cfg\[15\]:2 u_sm___008_:2 0.003620
50 cfg\[15\]:2 u_sm___009_:2 0.008205
51 cfg\[15\]:2 u_sm___010_:2 0.003620
52 cfg\[15\]:2 u_sm___011_:2 0.007563
53 cfg\[15\]:2 u_sm___016_:2 0.003620
54 cfg\[15\]:2 u_sm___021_:2 0.003620
55 cfg\[15\]:2 u_sm___032_:2 0.003620
56 cfg\[15\]:2 w_in\[0\]:2 0.003620
57 cfg\[15\]:2 w_in\[1\]:2 0.011449
58 cfg\[15\]:2 w_in\[2\]:2 0.002624
59 cfg\[15\]:2 w_in\[3\]:2 0.006244
*RES
1 cfg[15] cfg\[15\]:2 61.123300
2 cfg[15] g_slice_0__u_slice___12_:A3 0.000000
*END

*D_NET cfg\[16\] 2.707549
*CONN
*P cfg\[16\] B
*I g_slice_0__u_slice___14_:S B
*CAP
1 cfg\[16\]:2 2.606849
2 cfg\[16\]:2 cfg\[27\]:2 0.000060
3 cfg\[16\]:2 cfg\[51\]:2 0.003620
4 cfg\[16\]:2 cfg\[52\]:2 0.002624
5 cfg\[16\]:2 e_in\[2\]:2 0.004873
6 cfg\[16\]:2 g_slice_0__u_slice__ff_q:2 0.004310
7 cfg\[16\]:2 lut_in\[11\]:2 0.002624
8 cfg\[16\]:2 lut_in\[4\]:2 0.012859
9 cfg\[16\]:2 lut_in\[5\]:2 0.015367
10 cfg\[16\]:2 lut_in\[6\]:2 0.002624
11 cfg\[16\]:2 lut_in\[7\]:2 0.002624
12 cfg\[16\]:2 n_in\[1\]:2 0.006244
13 cfg\[16\]:2 n_in\[2\]:2 0.008688
14 cfg\[16\]:2 n_out\[3\]:2 0.006244
15 cfg\[16\]:2 s_in\[3\]:2 0.007240
16 cfg\[16\]:2 s_out\[2\]:2 0.007240
17 cfg\[16\]:2 u_sm___032_:2 0.013459
*RES
1 cfg[16] cfg\[16\]:2 76.726900
2 cfg[16] g_slice_0__u_slice___14_:S 0.000000
*END

*D_NET cfg\[17\] 1.243898
*CONN
*P cfg\[17\] B
*I g_slice_1__u_slice___09_:A0 B
*CAP
1 cfg\[17\]:2 1.205004
2 cfg\[17\]:2 cfg\[18\]:2 0.003620
3 cfg\[17\]:2 cfg\[19\]:2 0.003620
4 cfg\[17\]:2 cfg\[1\]:2 0.003620
5 cfg\[17\]:2 cfg\[20\]:2 0.011200
6 cfg\[17\]:2 cfg\[29\]:2 0.002624
7 cfg\[17\]:2 cfg\[30\]:2 0.002624
8 cfg\[17\]:2 cfg\[31\]:2 0.002624
9 cfg\[17\]:2 cfg\[51\]:2 0.003620
10 cfg\[17\]:2 cfg\[52\]:2 0.002624
11 cfg\[17\]:2 g_slice_1__u_slice___01_:2 0.002718
*RES
1 cfg[17] cfg\[17\]:2 59.382200
2 cfg[17] g_slice_1__u_slice___09_:A0 0.000000
*END

*D_NET cfg\[18\] 1.266942
*CONN
*P cfg\[18\] B
*I g_slice_1__u_slice___09_:A1 B
*CAP
1 cfg\[18\]:2 1.225079
2 cfg\[18\]:2 cfg\[19\]:2 0.003620
3 cfg\[18\]:2 cfg\[1\]:2 0.003620
4 cfg\[18\]:2 cfg\[20\]:2 0.005916
5 cfg\[18\]:2 cfg\[30\]:2 0.002624
6 cfg\[18\]:2 cfg\[31\]:2 0.002624
7 cfg\[18\]:2 cfg\[51\]:2 0.003620
8 cfg\[18\]:2 cfg\[52\]:2 0.003620
9 cfg\[18\]:2 g_slice_1__u_slice___04_:2 0.002624
10 cfg\[18\]:2 lut_in\[4\]:2 0.004310
11 cfg\[18\]:2 s_out\[2\]:2 0.009285
*RES
1 cfg[18] cfg\[18\]:2 30.263600
2 cfg[18] g_slice_1__u_slice___09_:A1 0.000000
*END

*D_NET cfg\[19\] 1.444843
*CONN
*P cfg\[19\] B
*I g_slice_1__u_slice___09_:A2 B
*CAP
1 cfg\[19\]:2 1.407924
2 cfg\[19\]:2 cfg\[1\]:2 0.006244
3 cfg\[19\]:2 cfg\[30\]:2 0.002624
4 cfg\[19\]:2 cfg\[31\]:2 0.002624
5 cfg\[19\]:2 cfg\[32\]:2 0.002624
6 cfg\[19\]:2 cfg\[51\]:2 0.003620
7 cfg\[19\]:2 cfg\[52\]:2 0.003620
8 cfg\[19\]:2 g_slice_1__u_slice___04_:2 0.007692
9 cfg\[19\]:2 lut_in\[4\]:2 0.005247
10 cfg\[19\]:2 lut_in\[5\]:2 0.002624
*RES
1 cfg[19] cfg\[19\]:2 51.713900
2 cfg[19] g_slice_1__u_slice___09_:A2 0.000000
*END

*D_NET cfg\[1\] 6.802746
*CONN
*P cfg\[1\] B
*I ANTENNA_1:DIODE B
*I g_slice_0__u_slice___09_:A1 B
*CAP
1 cfg\[1\]:2 6.615712
2 cfg\[1\]:2 cfg\[20\]:2 0.002624
3 cfg\[1\]:2 cfg\[23\]:2 0.002624
4 cfg\[1\]:2 cfg\[24\]:2 0.002624
5 cfg\[1\]:2 cfg\[27\]:2 0.003620
6 cfg\[1\]:2 cfg\[28\]:2 0.003620
7 cfg\[1\]:2 cfg\[2\]:2 0.003620
8 cfg\[1\]:2 cfg\[30\]:2 0.003137
9 cfg\[1\]:2 cfg\[31\]:2 0.014626
10 cfg\[1\]:2 cfg\[32\]:2 0.009171
11 cfg\[1\]:2 cfg\[36\]:2 0.007354
12 cfg\[1\]:2 cfg\[37\]:2 0.002624
13 cfg\[1\]:2 cfg\[3\]:2 0.005901
14 cfg\[1\]:2 cfg\[4\]:2 0.002624
15 cfg\[1\]:2 cfg\[51\]:2 0.003620
16 cfg\[1\]:2 cfg\[52\]:2 0.003620
17 cfg\[1\]:2 clknet_0_clk:2 0.002624
18 cfg\[1\]:2 clknet_1_1__leaf_clk:2 0.002624
19 cfg\[1\]:2 g_slice_0__u_slice___01_:2 0.002718
20 cfg\[1\]:2 g_slice_1__u_slice___03_:2 0.003620
21 cfg\[1\]:2 g_slice_1__u_slice___05_:2 0.004310
22 cfg\[1\]:2 g_slice_1__u_slice___06_:2 0.008995
23 cfg\[1\]:2 g_slice_1__u_slice__ff_q:2 0.005247
24 cfg\[1\]:2 g_slice_2__u_slice___00_:2 0.004477
25 cfg\[1\]:2 g_slice_2__u_slice___05_:2 0.002624
26 cfg\[1\]:2 g_slice_2__u_slice___07_:2 0.008833
27 cfg\[1\]:2 g_slice_2__u_slice___08_:2 0.008833
28 cfg\[1\]:2 g_slice_2__u_slice__ff_q:2 0.005342
29 cfg\[1\]:2 lut_in\[0\]:2 0.013949
30 cfg\[1\]:2 lut_in\[10\]:2 0.003620
31 cfg\[1\]:2 lut_in\[11\]:2 0.002624
32 cfg\[1\]:2 lut_in\[1\]:2 0.004637
33 cfg\[1\]:2 lut_in\[4\]:2 0.007871
34 cfg\[1\]:2 lut_in\[7\]:2 0.002624
35 cfg\[1\]:2 lut_in\[8\]:2 0.005247
36 cfg\[1\]:2 lut_in\[9\]:2 0.006934
37 cfg\[1\]:2 w_in\[0\]:2 0.002624
38 cfg\[1\]:2 w_in\[1\]:2 0.002624
39 cfg\[1\]:2 w_in\[2\]:2 0.002624
*RES
1 cfg[1] cfg\[1\]:2 121.997100
2 cfg[1] ANTENNA_1:DIODE 0.000000
3 cfg[1] g_slice_0__u_slice___09_:A1 0.000000
*END

*D_NET cfg\[20\] 1.153067
*CONN
*P cfg\[20\] B
*I g_slice_1__u_slice___09_:A3 B
*CAP
1 cfg\[20\]:2 1.122395
2 cfg\[20\]:2 cfg\[29\]:2 0.002624
3 cfg\[20\]:2 cfg\[30\]:2 0.002624
4 cfg\[20\]:2 cfg\[31\]:2 0.002624
5 cfg\[20\]:2 cfg\[32\]:2 0.002624
6 cfg\[20\]:2 cfg\[51\]:2 0.003620
7 cfg\[20\]:2 g_slice_1__u_slice___01_:2 0.002718
8 cfg\[20\]:2 lut_in\[4\]:2 0.003206
9 cfg\[20\]:2 lut_in\[5\]:2 0.010632
*RES
1 cfg[20] cfg\[20\]:2 49.452500
2 cfg[20] g_slice_1__u_slice___09_:A3 0.000000
*END

*D_NET cfg\[21\] 0.999123
*CONN
*P cfg\[21\] B
*I g_slice_1__u_slice___11_:A0 B
*CAP
1 cfg\[21\]:2 0.968645
2 cfg\[21\]:2 cfg\[22\]:2 0.008576
3 cfg\[21\]:2 cfg\[23\]:2 0.005068
4 cfg\[21\]:2 cfg\[29\]:2 0.002624
5 cfg\[21\]:2 cfg\[30\]:2 0.002624
6 cfg\[21\]:2 cfg\[31\]:2 0.002624
7 cfg\[21\]:2 cfg\[51\]:2 0.003620
8 cfg\[21\]:2 g_slice_1__u_slice___01_:2 0.002624
9 cfg\[21\]:2 g_slice_1__u_slice___03_:2 0.002718
*RES
1 cfg[21] cfg\[21\]:2 56.653300
2 cfg[21] g_slice_1__u_slice___11_:A0 0.000000
*END

*D_NET cfg\[22\] 0.993344
*CONN
*P cfg\[22\] B
*I g_slice_1__u_slice___11_:A1 B
*CAP
1 cfg\[22\]:2 0.963689
2 cfg\[22\]:2 cfg\[23\]:2 0.006323
3 cfg\[22\]:2 cfg\[24\]:2 0.005916
4 cfg\[22\]:2 cfg\[29\]:2 0.002624
5 cfg\[22\]:2 cfg\[30\]:2 0.002624
6 cfg\[22\]:2 cfg\[31\]:2 0.002624
7 cfg\[22\]:2 cfg\[51\]:2 0.003620
8 cfg\[22\]:2 g_slice_1__u_slice___01_:2 0.002624
9 cfg\[22\]:2 g_slice_1__u_slice___03_:2 0.002718
10 cfg\[22\]:2 lut_in\[4\]:2 0.000582
*RES
1 cfg[22] cfg\[22\]:2 30.624800
2 cfg[22] g_slice_1__u_slice___11_:A1 0.000000
*END

*D_NET cfg\[23\] 1.261319
*CONN
*P cfg\[23\] B
*I g_slice_1__u_slice___11_:A2 B
*CAP
1 cfg\[23\]:2 1.222745
2 cfg\[23\]:2 cfg\[24\]:2 0.007354
3 cfg\[23\]:2 cfg\[29\]:2 0.003620
4 cfg\[23\]:2 cfg\[30\]:2 0.003620
5 cfg\[23\]:2 cfg\[31\]:2 0.003620
6 cfg\[23\]:2 cfg\[32\]:2 0.002624
7 cfg\[23\]:2 cfg\[51\]:2 0.003620
8 cfg\[23\]:2 g_slice_1__u_slice___01_:2 0.003620
9 cfg\[23\]:2 g_slice_1__u_slice___03_:2 0.002624
10 cfg\[23\]:2 g_slice_1__u_slice___04_:2 0.002624
11 cfg\[23\]:2 lut_in\[4\]:2 0.002624
12 cfg\[23\]:2 lut_in\[5\]:2 0.002624
*RES
1 cfg[23] cfg\[23\]:2 49.592800
2 cfg[23] g_slice_1__u_slice___11_:A2 0.000000
*END

*D_NET cfg\[24\] 1.303528
*CONN
*P cfg\[24\] B
*I g_slice_1__u_slice___11_:A3 B
*CAP
1 cfg\[24\]:2 1.256385
2 cfg\[24\]:2 cfg\[29\]:2 0.003620
3 cfg\[24\]:2 cfg\[30\]:2 0.003620
4 cfg\[24\]:2 cfg\[31\]:2 0.003620
5 cfg\[24\]:2 cfg\[32\]:2 0.002624
6 cfg\[24\]:2 cfg\[51\]:2 0.003620
7 cfg\[24\]:2 cfg\[52\]:2 0.003620
8 cfg\[24\]:2 g_slice_1__u_slice___02_:2 0.008947
9 cfg\[24\]:2 g_slice_1__u_slice___03_:2 0.004310
10 cfg\[24\]:2 lut_in\[4\]:2 0.002624
11 cfg\[24\]:2 lut_in\[5\]:2 0.010538
*RES
1 cfg[24] cfg\[24\]:2 47.457400
2 cfg[24] g_slice_1__u_slice___11_:A3 0.000000
*END

*D_NET cfg\[25\] 1.002567
*CONN
*P cfg\[25\] B
*I g_slice_1__u_slice___10_:A0 B
*CAP
1 cfg\[25\]:2 0.976352
2 cfg\[25\]:2 cfg\[26\]:2 0.003620
3 cfg\[25\]:2 cfg\[27\]:2 0.003137
4 cfg\[25\]:2 cfg\[29\]:2 0.002624
5 cfg\[25\]:2 cfg\[30\]:2 0.002624
6 cfg\[25\]:2 cfg\[31\]:2 0.002624
7 cfg\[25\]:2 cfg\[51\]:2 0.003620
8 cfg\[25\]:2 cfg\[52\]:2 0.002624
9 cfg\[25\]:2 g_slice_1__u_slice___02_:2 0.002718
10 cfg\[25\]:2 g_slice_1__u_slice___05_:2 0.002624
*RES
1 cfg[25] cfg\[25\]:2 56.680800
2 cfg[25] g_slice_1__u_slice___10_:A0 0.000000
*END

*D_NET cfg\[26\] 0.998755
*CONN
*P cfg\[26\] B
*I g_slice_1__u_slice___10_:A1 B
*CAP
1 cfg\[26\]:2 0.966206
2 cfg\[26\]:2 cfg\[27\]:2 0.003137
3 cfg\[26\]:2 cfg\[29\]:2 0.003620
4 cfg\[26\]:2 cfg\[30\]:2 0.003620
5 cfg\[26\]:2 cfg\[31\]:2 0.003620
6 cfg\[26\]:2 cfg\[51\]:2 0.003620
7 cfg\[26\]:2 cfg\[52\]:2 0.003620
8 cfg\[26\]:2 g_slice_1__u_slice___02_:2 0.005068
9 cfg\[26\]:2 g_slice_1__u_slice___05_:2 0.003620
10 cfg\[26\]:2 lut_in\[4\]:2 0.002624
*RES
1 cfg[26] cfg\[26\]:2 26.892600
2 cfg[26] g_slice_1__u_slice___10_:A1 0.000000
*END

*D_NET cfg\[27\] 1.259512
*CONN
*P cfg\[27\] B
*I g_slice_1__u_slice___10_:A2 B
*CAP
1 cfg\[27\]:2 1.222530
2 cfg\[27\]:2 cfg\[28\]:2 0.005068
3 cfg\[27\]:2 cfg\[29\]:2 0.003620
4 cfg\[27\]:2 cfg\[30\]:2 0.003620
5 cfg\[27\]:2 cfg\[31\]:2 0.003620
6 cfg\[27\]:2 cfg\[32\]:2 0.003620
7 cfg\[27\]:2 cfg\[4\]:2 0.003437
8 cfg\[27\]:2 cfg\[51\]:2 0.003620
9 cfg\[27\]:2 cfg\[52\]:2 0.003620
10 cfg\[27\]:2 g_slice_1__u_slice___05_:2 0.003620
11 cfg\[27\]:2 lut_in\[5\]:2 0.003137
*RES
1 cfg[27] cfg\[27\]:2 46.787400
2 cfg[27] g_slice_1__u_slice___10_:A2 0.000000
*END

*D_NET cfg\[28\] 1.317212
*CONN
*P cfg\[28\] B
*I g_slice_1__u_slice___10_:A3 B
*CAP
1 cfg\[28\]:2 1.283862
2 cfg\[28\]:2 cfg\[29\]:2 0.003620
3 cfg\[28\]:2 cfg\[30\]:2 0.003620
4 cfg\[28\]:2 cfg\[31\]:2 0.003620
5 cfg\[28\]:2 cfg\[32\]:2 0.003620
6 cfg\[28\]:2 cfg\[51\]:2 0.003620
7 cfg\[28\]:2 cfg\[52\]:2 0.003620
8 cfg\[28\]:2 g_slice_1__u_slice___05_:2 0.003620
9 cfg\[28\]:2 g_slice_1__u_slice__ff_q:2 0.008010
*RES
1 cfg[28] cfg\[28\]:2 44.593200
2 cfg[28] g_slice_1__u_slice___10_:A3 0.000000
*END

*D_NET cfg\[29\] 1.805142
*CONN
*P cfg\[29\] B
*I g_slice_1__u_slice___12_:A0 B
*CAP
1 cfg\[29\]:2 1.755727
2 cfg\[29\]:2 cfg\[30\]:2 0.007580
3 cfg\[29\]:2 cfg\[31\]:2 0.007580
4 cfg\[29\]:2 cfg\[51\]:2 0.003620
5 cfg\[29\]:2 cfg\[52\]:2 0.003620
6 cfg\[29\]:2 g_slice_1__u_slice___01_:2 0.021739
7 cfg\[29\]:2 g_slice_1__u_slice___04_:2 0.005276
*RES
1 cfg[29] cfg\[29\]:2 65.077200
2 cfg[29] g_slice_1__u_slice___12_:A0 0.000000
*END

*D_NET cfg\[2\] 5.008627
*CONN
*P cfg\[2\] B
*I g_slice_0__u_slice___09_:A2 B
*CAP
1 cfg\[2\]:2 4.920341
2 cfg\[2\]:2 cfg\[30\]:2 0.003620
3 cfg\[2\]:2 cfg\[31\]:2 0.003620
4 cfg\[2\]:2 cfg\[32\]:2 0.003620
5 cfg\[2\]:2 cfg\[33\]:2 0.003620
6 cfg\[2\]:2 cfg\[4\]:2 0.003620
7 cfg\[2\]:2 cfg\[51\]:2 0.003620
8 cfg\[2\]:2 cfg\[52\]:2 0.003620
9 cfg\[2\]:2 cfg\[8\]:2 0.003137
10 cfg\[2\]:2 cfg\[9\]:2 0.005068
11 cfg\[2\]:2 clk:2 0.003620
12 cfg\[2\]:2 clknet_0_clk:2 0.005068
13 cfg\[2\]:2 g_slice_0__u_slice___01_:2 0.003620
14 cfg\[2\]:2 g_slice_1__u_slice___00_:2 0.003137
15 cfg\[2\]:2 g_slice_1__u_slice___06_:2 0.003137
16 cfg\[2\]:2 lut_in\[0\]:2 0.002624
17 cfg\[2\]:2 lut_in\[10\]:2 0.007563
18 cfg\[2\]:2 lut_in\[11\]:2 0.003620
19 cfg\[2\]:2 lut_in\[1\]:2 0.002624
20 cfg\[2\]:2 lut_in\[8\]:2 0.003620
21 cfg\[2\]:2 lut_in\[9\]:2 0.003620
22 cfg\[2\]:2 w_in\[0\]:2 0.006244
23 cfg\[2\]:2 w_in\[1\]:2 0.002624
24 cfg\[2\]:2 w_in\[2\]:2 0.003620
*RES
1 cfg[2] cfg\[2\]:2 59.143500
2 cfg[2] g_slice_0__u_slice___09_:A2 0.000000
*END

*D_NET cfg\[30\] 2.141687
*CONN
*P cfg\[30\] B
*I g_slice_1__u_slice___12_:A1 B
*CAP
1 cfg\[30\]:2 2.117943
2 cfg\[30\]:2 cfg\[31\]:2 0.008539
3 cfg\[30\]:2 cfg\[51\]:2 0.003620
4 cfg\[30\]:2 cfg\[52\]:2 0.003620
5 cfg\[30\]:2 g_slice_1__u_slice___01_:2 0.005247
6 cfg\[30\]:2 g_slice_1__u_slice___04_:2 0.002718
*RES
1 cfg[30] cfg\[30\]:2 43.294400
2 cfg[30] g_slice_1__u_slice___12_:A1 0.000000
*END

*D_NET cfg\[31\] 2.625164
*CONN
*P cfg\[31\] B
*I g_slice_1__u_slice___12_:A2 B
*CAP
1 cfg\[31\]:2 2.588250
2 cfg\[31\]:2 cfg\[32\]:2 0.008619
3 cfg\[31\]:2 cfg\[51\]:2 0.003620
4 cfg\[31\]:2 cfg\[52\]:2 0.003620
5 cfg\[31\]:2 g_slice_1__u_slice___01_:2 0.005247
6 cfg\[31\]:2 g_slice_1__u_slice___04_:2 0.005342
7 cfg\[31\]:2 lut_in\[4\]:2 0.003206
8 cfg\[31\]:2 lut_in\[5\]:2 0.007260
*RES
1 cfg[31] cfg\[31\]:2 68.417000
2 cfg[31] g_slice_1__u_slice___12_:A2 0.000000
*END

*D_NET cfg\[32\] 2.599704
*CONN
*P cfg\[32\] B
*I g_slice_1__u_slice___12_:A3 B
*CAP
1 cfg\[32\]:2 2.531805
2 cfg\[32\]:2 cfg\[33\]:2 0.003620
3 cfg\[32\]:2 cfg\[3\]:2 0.007692
4 cfg\[32\]:2 cfg\[51\]:2 0.003620
5 cfg\[32\]:2 cfg\[52\]:2 0.003620
6 cfg\[32\]:2 g_slice_1__u_slice___03_:2 0.003620
7 cfg\[32\]:2 g_slice_1__u_slice___05_:2 0.002624
8 cfg\[32\]:2 g_slice_1__u_slice___06_:2 0.002624
9 cfg\[32\]:2 g_slice_1__u_slice___07_:2 0.005247
10 cfg\[32\]:2 g_slice_1__u_slice__ff_q:2 0.002624
11 cfg\[32\]:2 lut_in\[4\]:2 0.007871
12 cfg\[32\]:2 lut_in\[5\]:2 0.017803
13 cfg\[32\]:2 lut_in\[6\]:2 0.004310
14 cfg\[32\]:2 lut_in\[7\]:2 0.002624
*RES
1 cfg[32] cfg\[32\]:2 60.022900
2 cfg[32] g_slice_1__u_slice___12_:A3 0.000000
*END

*D_NET cfg\[33\] 1.106824
*CONN
*P cfg\[33\] B
*I g_slice_1__u_slice___14_:S B
*CAP
1 cfg\[33\]:2 1.090302
2 cfg\[33\]:2 cfg\[3\]:2 0.006244
3 cfg\[33\]:2 cfg\[51\]:2 0.003620
4 cfg\[33\]:2 cfg\[52\]:2 0.003620
5 cfg\[33\]:2 g_slice_1__u_slice___05_:2 0.003038
*RES
1 cfg[33] cfg\[33\]:2 63.506700
2 cfg[33] g_slice_1__u_slice___14_:S 0.000000
*END

*D_NET cfg\[34\] 0.616100
*CONN
*P cfg\[34\] B
*I g_slice_2__u_slice___09_:A0 B
*CAP
1 cfg\[34\]:2 0.587074
2 cfg\[34\]:2 cfg\[35\]:2 0.013210
3 cfg\[34\]:2 cfg\[3\]:2 0.003620
4 cfg\[34\]:2 cfg\[51\]:2 0.003620
5 cfg\[34\]:2 cfg\[52\]:2 0.003620
6 cfg\[34\]:2 g_slice_2__u_slice___01_:2 0.004956
*RES
1 cfg[34] cfg\[34\]:2 50.358100
2 cfg[34] g_slice_2__u_slice___09_:A0 0.000000
*END

*D_NET cfg\[35\] 0.850895
*CONN
*P cfg\[35\] B
*I g_slice_2__u_slice___09_:A1 B
*CAP
1 cfg\[35\]:2 0.838727
2 cfg\[35\]:2 cfg\[3\]:2 0.002624
3 cfg\[35\]:2 cfg\[51\]:2 0.003620
4 cfg\[35\]:2 cfg\[52\]:2 0.002624
5 cfg\[35\]:2 g_slice_2__u_slice___01_:2 0.002718
6 cfg\[35\]:2 lut_in\[8\]:2 0.000582
*RES
1 cfg[35] cfg\[35\]:2 29.622700
2 cfg[35] g_slice_2__u_slice___09_:A1 0.000000
*END

*D_NET cfg\[36\] 1.229334
*CONN
*P cfg\[36\] B
*I g_slice_2__u_slice___09_:A2 B
*CAP
1 cfg\[36\]:2 1.199624
2 cfg\[36\]:2 cfg\[37\]:2 0.003620
3 cfg\[36\]:2 cfg\[3\]:2 0.003620
4 cfg\[36\]:2 cfg\[51\]:2 0.003620
5 cfg\[36\]:2 cfg\[52\]:2 0.003620
6 cfg\[36\]:2 g_slice_2__u_slice___01_:2 0.003620
7 cfg\[36\]:2 g_slice_2__u_slice___08_:2 0.004310
8 cfg\[36\]:2 lut_in\[10\]:2 0.003620
9 cfg\[36\]:2 lut_in\[8\]:2 0.003620
10 cfg\[36\]:2 lut_in\[9\]:2 0.000060
*RES
1 cfg[36] cfg\[36\]:2 47.691600
2 cfg[36] g_slice_2__u_slice___09_:A2 0.000000
*END

*D_NET cfg\[37\] 1.230038
*CONN
*P cfg\[37\] B
*I g_slice_2__u_slice___09_:A3 B
*CAP
1 cfg\[37\]:2 1.200968
2 cfg\[37\]:2 cfg\[3\]:2 0.003620
3 cfg\[37\]:2 cfg\[51\]:2 0.003620
4 cfg\[37\]:2 cfg\[52\]:2 0.003620
5 cfg\[37\]:2 g_slice_2__u_slice___01_:2 0.003620
6 cfg\[37\]:2 g_slice_2__u_slice___05_:2 0.007692
7 cfg\[37\]:2 lut_in\[10\]:2 0.003620
8 cfg\[37\]:2 lut_in\[9\]:2 0.003278
*RES
1 cfg[37] cfg\[37\]:2 45.713400
2 cfg[37] g_slice_2__u_slice___09_:A3 0.000000
*END

*D_NET cfg\[38\] 0.875944
*CONN
*P cfg\[38\] B
*I g_slice_2__u_slice___11_:A0 B
*CAP
1 cfg\[38\]:2 0.857504
2 cfg\[38\]:2 cfg\[39\]:2 0.004956
3 cfg\[38\]:2 cfg\[3\]:2 0.003620
4 cfg\[38\]:2 cfg\[51\]:2 0.003620
5 cfg\[38\]:2 cfg\[52\]:2 0.003620
6 cfg\[38\]:2 g_slice_2__u_slice___03_:2 0.002624
*RES
1 cfg[38] cfg\[38\]:2 51.975300
2 cfg[38] g_slice_2__u_slice___11_:A0 0.000000
*END

*D_NET cfg\[39\] 0.926972
*CONN
*P cfg\[39\] B
*I g_slice_2__u_slice___11_:A1 B
*CAP
1 cfg\[39\]:2 0.915386
2 cfg\[39\]:2 cfg\[3\]:2 0.002624
3 cfg\[39\]:2 cfg\[51\]:2 0.003620
4 cfg\[39\]:2 cfg\[52\]:2 0.002624
5 cfg\[39\]:2 g_slice_2__u_slice___03_:2 0.002718
*RES
1 cfg[39] cfg\[39\]:2 30.356200
2 cfg[39] g_slice_2__u_slice___11_:A1 0.000000
*END

*D_NET cfg\[3\] 5.472957
*CONN
*P cfg\[3\] B
*I g_slice_0__u_slice___09_:A3 B
*CAP
1 cfg\[3\]:2 5.409322
2 cfg\[3\]:2 cfg\[4\]:2 0.002624
3 cfg\[3\]:2 cfg\[51\]:2 0.003620
4 cfg\[3\]:2 cfg\[52\]:2 0.002624
5 cfg\[3\]:2 clknet_0_clk:2 0.008060
6 cfg\[3\]:2 clknet_1_1__leaf_clk:2 0.005596
7 cfg\[3\]:2 g_slice_0__u_slice___01_:2 0.002624
8 cfg\[3\]:2 g_slice_1__u_slice___00_:2 0.004477
9 cfg\[3\]:2 g_slice_1__u_slice___06_:2 0.004991
10 cfg\[3\]:2 g_slice_1__u_slice__ff_q:2 0.007032
11 cfg\[3\]:2 lut_in\[11\]:2 0.002624
12 cfg\[3\]:2 lut_in\[1\]:2 0.002624
13 cfg\[3\]:2 lut_in\[8\]:2 0.002624
14 cfg\[3\]:2 lut_in\[9\]:2 0.003620
15 cfg\[3\]:2 w_in\[0\]:2 0.005247
16 cfg\[3\]:2 w_in\[1\]:2 0.002624
17 cfg\[3\]:2 w_in\[2\]:2 0.002624
*RES
1 cfg[3] cfg\[3\]:2 95.097600
2 cfg[3] g_slice_0__u_slice___09_:A3 0.000000
*END

*D_NET cfg\[40\] 1.393181
*CONN
*P cfg\[40\] B
*I g_slice_2__u_slice___11_:A2 B
*CAP
1 cfg\[40\]:2 1.356474
2 cfg\[40\]:2 cfg\[41\]:2 0.003620
3 cfg\[40\]:2 cfg\[4\]:2 0.003620
4 cfg\[40\]:2 cfg\[51\]:2 0.003620
5 cfg\[40\]:2 cfg\[52\]:2 0.003620
6 cfg\[40\]:2 g_slice_2__u_slice___02_:2 0.003620
7 cfg\[40\]:2 g_slice_2__u_slice___04_:2 0.003620
8 cfg\[40\]:2 g_slice_2__u_slice___05_:2 0.003620
9 cfg\[40\]:2 g_slice_2__u_slice__ff_q:2 0.003620
10 cfg\[40\]:2 lut_in\[8\]:2 0.004310
11 cfg\[40\]:2 lut_in\[9\]:2 0.003437
*RES
1 cfg[40] cfg\[40\]:2 47.979900
2 cfg[40] g_slice_2__u_slice___11_:A2 0.000000
*END

*D_NET cfg\[41\] 1.334577
*CONN
*P cfg\[41\] B
*I g_slice_2__u_slice___11_:A3 B
*CAP
1 cfg\[41\]:2 1.307633
2 cfg\[41\]:2 cfg\[50\]:2 0.003137
3 cfg\[41\]:2 cfg\[51\]:2 0.003620
4 cfg\[41\]:2 cfg\[52\]:2 0.003620
5 cfg\[41\]:2 g_slice_2__u_slice___02_:2 0.003620
6 cfg\[41\]:2 g_slice_2__u_slice___04_:2 0.003620
7 cfg\[41\]:2 g_slice_2__u_slice__ff_q:2 0.003186
8 cfg\[41\]:2 lut_in\[8\]:2 0.002624
9 cfg\[41\]:2 lut_in\[9\]:2 0.003517
*RES
1 cfg[41] cfg\[41\]:2 45.395500
2 cfg[41] g_slice_2__u_slice___11_:A3 0.000000
*END

*D_NET cfg\[42\] 0.800501
*CONN
*P cfg\[42\] B
*I g_slice_2__u_slice___10_:A0 B
*CAP
1 cfg\[42\]:2 0.786583
2 cfg\[42\]:2 cfg\[51\]:2 0.003620
3 cfg\[42\]:2 cfg\[52\]:2 0.002624
4 cfg\[42\]:2 g_slice_2__u_slice___02_:2 0.007674
*RES
1 cfg[42] cfg\[42\]:2 54.532200
2 cfg[42] g_slice_2__u_slice___10_:A0 0.000000
*END

*D_NET cfg\[43\] 0.923079
*CONN
*P cfg\[43\] B
*I g_slice_2__u_slice___10_:A1 B
*CAP
1 cfg\[43\]:2 0.911622
2 cfg\[43\]:2 cfg\[51\]:2 0.003620
3 cfg\[43\]:2 cfg\[52\]:2 0.003620
4 cfg\[43\]:2 lut_in\[8\]:2 0.004217
*RES
1 cfg[43] cfg\[43\]:2 25.534300
2 cfg[43] g_slice_2__u_slice___10_:A1 0.000000
*END

*D_NET cfg\[44\] 1.390081
*CONN
*P cfg\[44\] B
*I g_slice_2__u_slice___10_:A2 B
*CAP
1 cfg\[44\]:2 1.356994
2 cfg\[44\]:2 cfg\[45\]:2 0.003620
3 cfg\[44\]:2 cfg\[4\]:2 0.003620
4 cfg\[44\]:2 cfg\[50\]:2 0.003620
5 cfg\[44\]:2 cfg\[51\]:2 0.003620
6 cfg\[44\]:2 cfg\[52\]:2 0.003620
7 cfg\[44\]:2 g_slice_2__u_slice___04_:2 0.003620
8 cfg\[44\]:2 lut_in\[8\]:2 0.004310
9 cfg\[44\]:2 lut_in\[9\]:2 0.007057
*RES
1 cfg[44] cfg\[44\]:2 47.979900
2 cfg[44] g_slice_2__u_slice___10_:A2 0.000000
*END

*D_NET cfg\[45\] 1.340905
*CONN
*P cfg\[45\] B
*I g_slice_2__u_slice___10_:A3 B
*CAP
1 cfg\[45\]:2 1.307377
2 cfg\[45\]:2 cfg\[47\]:2 0.003137
3 cfg\[45\]:2 cfg\[49\]:2 0.008010
4 cfg\[45\]:2 cfg\[50\]:2 0.003620
5 cfg\[45\]:2 cfg\[51\]:2 0.003620
6 cfg\[45\]:2 cfg\[52\]:2 0.003620
7 cfg\[45\]:2 g_slice_2__u_slice___04_:2 0.003137
8 cfg\[45\]:2 lut_in\[8\]:2 0.005247
9 cfg\[45\]:2 lut_in\[9\]:2 0.003137
*RES
1 cfg[45] cfg\[45\]:2 45.395500
2 cfg[45] g_slice_2__u_slice___10_:A3 0.000000
*END

*D_NET cfg\[46\] 0.832783
*CONN
*P cfg\[46\] B
*I g_slice_2__u_slice___12_:A0 B
*CAP
1 cfg\[46\]:2 0.810766
2 cfg\[46\]:2 cfg\[51\]:2 0.003620
3 cfg\[46\]:2 cfg\[52\]:2 0.008165
4 cfg\[46\]:2 g_slice_2__u_slice___04_:2 0.010232
*RES
1 cfg[46] cfg\[46\]:2 54.836600
2 cfg[46] g_slice_2__u_slice___12_:A0 0.000000
*END

*D_NET cfg\[47\] 1.080658
*CONN
*P cfg\[47\] B
*I g_slice_2__u_slice___12_:A1 B
*CAP
1 cfg\[47\]:2 1.067502
2 cfg\[47\]:2 cfg\[51\]:2 0.003620
3 cfg\[47\]:2 cfg\[52\]:2 0.003620
4 cfg\[47\]:2 g_slice_2__u_slice___04_:2 0.005916
*RES
1 cfg[47] cfg\[47\]:2 27.352500
2 cfg[47] g_slice_2__u_slice___12_:A1 0.000000
*END

*D_NET cfg\[48\] 1.482673
*CONN
*P cfg\[48\] B
*I g_slice_2__u_slice___12_:A2 B
*CAP
1 cfg\[48\]:2 1.464573
2 cfg\[48\]:2 cfg\[49\]:2 0.003620
3 cfg\[48\]:2 cfg\[4\]:2 0.003620
4 cfg\[48\]:2 cfg\[50\]:2 0.003620
5 cfg\[48\]:2 cfg\[51\]:2 0.003620
6 cfg\[48\]:2 cfg\[52\]:2 0.003620
*RES
1 cfg[48] cfg\[48\]:2 49.191800
2 cfg[48] g_slice_2__u_slice___12_:A2 0.000000
*END

*D_NET cfg\[49\] 1.485249
*CONN
*P cfg\[49\] B
*I g_slice_2__u_slice___12_:A3 B
*CAP
1 cfg\[49\]:2 1.470748
2 cfg\[49\]:2 cfg\[50\]:2 0.002624
3 cfg\[49\]:2 cfg\[51\]:2 0.003620
4 cfg\[49\]:2 cfg\[52\]:2 0.003620
5 cfg\[49\]:2 lut_in\[9\]:2 0.004637
*RES
1 cfg[49] cfg\[49\]:2 48.647200
2 cfg[49] g_slice_2__u_slice___12_:A3 0.000000
*END

*D_NET cfg\[4\] 7.148753
*CONN
*P cfg\[4\] B
*I g_slice_0__u_slice___11_:A0 B
*CAP
1 cfg\[4\]:2 6.977919
2 cfg\[4\]:2 cfg\[50\]:2 0.003620
3 cfg\[4\]:2 cfg\[51\]:2 0.003620
4 cfg\[4\]:2 cfg\[52\]:2 0.003620
5 cfg\[4\]:2 cfg\[7\]:2 0.002458
6 cfg\[4\]:2 cfg\[8\]:2 0.002624
7 cfg\[4\]:2 cfg\[98\]:2 0.002624
8 cfg\[4\]:2 cfg\[99\]:2 0.002624
9 cfg\[4\]:2 cfg\[9\]:2 0.002624
10 cfg\[4\]:2 clk:2 0.002624
11 cfg\[4\]:2 clknet_1_0__leaf_clk:2 0.006372
12 cfg\[4\]:2 g_slice_0__u_slice___00_:2 0.002624
13 cfg\[4\]:2 g_slice_0__u_slice___03_:2 0.002718
14 cfg\[4\]:2 g_slice_0__u_slice___04_:2 0.002624
15 cfg\[4\]:2 g_slice_0__u_slice___05_:2 0.025440
16 cfg\[4\]:2 g_slice_0__u_slice__ff_q:2 0.005661
17 cfg\[4\]:2 g_slice_1__u_slice___05_:2 0.002624
18 cfg\[4\]:2 g_slice_1__u_slice___06_:2 0.002624
19 cfg\[4\]:2 g_slice_1__u_slice___07_:2 0.006934
20 cfg\[4\]:2 g_slice_1__u_slice___08_:2 0.004310
21 cfg\[4\]:2 g_slice_2__u_slice___03_:2 0.002624
22 cfg\[4\]:2 g_slice_2__u_slice___05_:2 0.002624
23 cfg\[4\]:2 g_slice_2__u_slice___07_:2 0.004310
24 cfg\[4\]:2 g_slice_2__u_slice___08_:2 0.002624
25 cfg\[4\]:2 g_slice_2__u_slice__ff_q:2 0.002624
26 cfg\[4\]:2 g_slice_3__u_slice___00_:2 0.004477
27 cfg\[4\]:2 g_slice_3__u_slice___05_:2 0.002624
28 cfg\[4\]:2 g_slice_3__u_slice__ff_q:2 0.013962
29 cfg\[4\]:2 lut_in\[10\]:2 0.003620
30 cfg\[4\]:2 lut_in\[11\]:2 0.005247
31 cfg\[4\]:2 lut_in\[7\]:2 0.002624
32 cfg\[4\]:2 lut_in\[8\]:2 0.013118
33 cfg\[4\]:2 lut_in\[9\]:2 0.008867
34 cfg\[4\]:2 u_sm___037_:2 0.002624
35 cfg\[4\]:2 u_sm___038_:2 0.002624
36 cfg\[4\]:2 u_sm___039_:2 0.002624
37 cfg\[4\]:2 w_in\[0\]:2 0.002624
38 cfg\[4\]:2 w_in\[2\]:2 0.002624
*RES
1 cfg[4] cfg\[4\]:2 115.035600
2 cfg[4] g_slice_0__u_slice___11_:A0 0.000000
*END

*D_NET cfg\[50\] 2.000774
*CONN
*P cfg\[50\] B
*I g_slice_2__u_slice___14_:S B
*CAP
1 cfg\[50\]:2 1.985663
2 cfg\[50\]:2 cfg\[51\]:2 0.003620
3 cfg\[50\]:2 cfg\[52\]:2 0.003620
4 cfg\[50\]:2 g_slice_2__u_slice___04_:2 0.002624
5 cfg\[50\]:2 lut_in\[8\]:2 0.005247
*RES
1 cfg[50] cfg\[50\]:2 72.290800
2 cfg[50] g_slice_2__u_slice___14_:S 0.000000
*END

*D_NET cfg\[51\] 10.598090
*CONN
*P cfg\[51\] B
*I g_slice_3__u_slice___09_:A0 B
*CAP
1 cfg\[51\]:2 10.236382
2 cfg\[51\]:2 cfg\[52\]:2 0.113807
3 cfg\[51\]:2 cfg\[5\]:2 0.007563
4 cfg\[51\]:2 cfg\[6\]:2 0.002624
5 cfg\[51\]:2 cfg\[74\]:2 0.003620
6 cfg\[51\]:2 cfg\[75\]:2 0.003620
7 cfg\[51\]:2 cfg\[76\]:2 0.003620
8 cfg\[51\]:2 cfg\[77\]:2 0.003620
9 cfg\[51\]:2 cfg\[78\]:2 0.003620
10 cfg\[51\]:2 cfg\[79\]:2 0.003620
11 cfg\[51\]:2 cfg\[7\]:2 0.003620
12 cfg\[51\]:2 cfg\[83\]:2 0.004202
13 cfg\[51\]:2 cfg\[85\]:2 0.003620
14 cfg\[51\]:2 cfg\[88\]:2 0.007980
15 cfg\[51\]:2 cfg\[8\]:2 0.003620
16 cfg\[51\]:2 cfg\[95\]:2 0.003620
17 cfg\[51\]:2 cfg\[97\]:2 0.003137
18 cfg\[51\]:2 cfg\[98\]:2 0.008995
19 cfg\[51\]:2 cfg\[99\]:2 0.002624
20 cfg\[51\]:2 cfg\[9\]:2 0.002624
21 cfg\[51\]:2 clk:2 0.003620
22 cfg\[51\]:2 e_in\[1\]:2 0.005761
23 cfg\[51\]:2 e_in\[2\]:2 0.003620
24 cfg\[51\]:2 e_in\[3\]:2 0.002624
25 cfg\[51\]:2 g_slice_3__u_slice___01_:2 0.015154
26 cfg\[51\]:2 g_slice_3__u_slice___05_:2 0.002624
27 cfg\[51\]:2 lut_in\[10\]:2 0.007240
28 cfg\[51\]:2 n_in\[0\]:2 0.003620
29 cfg\[51\]:2 n_in\[1\]:2 0.008702
30 cfg\[51\]:2 n_in\[2\]:2 0.006244
31 cfg\[51\]:2 n_in\[3\]:2 0.002624
32 cfg\[51\]:2 n_out\[2\]:2 0.007563
33 cfg\[51\]:2 n_out\[3\]:2 0.003620
34 cfg\[51\]:2 s_in\[1\]:2 0.003620
35 cfg\[51\]:2 s_in\[2\]:2 0.013806
36 cfg\[51\]:2 s_in\[3\]:2 0.006244
37 cfg\[51\]:2 s_out\[2\]:2 0.003620
38 cfg\[51\]:2 u_sm___003_:2 0.003620
39 cfg\[51\]:2 u_sm___005_:2 0.003620
40 cfg\[51\]:2 u_sm___006_:2 0.003620
41 cfg\[51\]:2 u_sm___008_:2 0.003620
42 cfg\[51\]:2 u_sm___009_:2 0.003620
43 cfg\[51\]:2 u_sm___010_:2 0.005068
44 cfg\[51\]:2 u_sm___011_:2 0.003620
45 cfg\[51\]:2 u_sm___016_:2 0.004397
46 cfg\[51\]:2 u_sm___021_:2 0.006144
47 cfg\[51\]:2 u_sm___032_:2 0.003620
48 cfg\[51\]:2 u_sm___067_:2 0.013270
49 cfg\[51\]:2 w_in\[0\]:2 0.003620
50 cfg\[51\]:2 w_in\[1\]:2 0.007563
51 cfg\[51\]:2 w_in\[2\]:2 0.002624
52 cfg\[51\]:2 w_in\[3\]:2 0.003620
*RES
1 cfg[51] cfg\[51\]:2 123.170000
2 cfg[51] g_slice_3__u_slice___09_:A0 0.000000
*END

*D_NET cfg\[52\] 11.701211
*CONN
*P cfg\[52\] B
*I ANTENNA_2:DIODE B
*I g_slice_3__u_slice___09_:A1 B
*CAP
1 cfg\[52\]:2 11.415769
2 cfg\[52\]:2 cfg\[53\]:2 0.011991
3 cfg\[52\]:2 cfg\[54\]:2 0.015269
4 cfg\[52\]:2 cfg\[67\]:2 0.007563
5 cfg\[52\]:2 cfg\[6\]:2 0.002624
6 cfg\[52\]:2 cfg\[74\]:2 0.002624
7 cfg\[52\]:2 cfg\[75\]:2 0.002624
8 cfg\[52\]:2 cfg\[76\]:2 0.008254
9 cfg\[52\]:2 cfg\[77\]:2 0.005068
10 cfg\[52\]:2 cfg\[78\]:2 0.005068
11 cfg\[52\]:2 cfg\[79\]:2 0.003620
12 cfg\[52\]:2 cfg\[7\]:2 0.003620
13 cfg\[52\]:2 cfg\[83\]:2 0.003620
14 cfg\[52\]:2 cfg\[85\]:2 0.003137
15 cfg\[52\]:2 cfg\[88\]:2 0.007980
16 cfg\[52\]:2 cfg\[8\]:2 0.003620
17 cfg\[52\]:2 cfg\[95\]:2 0.006084
18 cfg\[52\]:2 cfg\[97\]:2 0.004637
19 cfg\[52\]:2 cfg\[98\]:2 0.002624
20 cfg\[52\]:2 cfg\[99\]:2 0.002624
21 cfg\[52\]:2 cfg\[9\]:2 0.002624
22 cfg\[52\]:2 clk:2 0.002624
23 cfg\[52\]:2 e_in\[0\]:2 0.002624
24 cfg\[52\]:2 e_in\[1\]:2 0.008539
25 cfg\[52\]:2 e_in\[2\]:2 0.005247
26 cfg\[52\]:2 e_in\[3\]:2 0.005247
27 cfg\[52\]:2 g_slice_2__u_slice___03_:2 0.021739
28 cfg\[52\]:2 g_slice_3__u_slice___05_:2 0.002624
29 cfg\[52\]:2 lut_in\[10\]:2 0.006244
30 cfg\[52\]:2 lut_in\[12\]:2 0.008125
31 cfg\[52\]:2 lut_in\[13\]:2 0.007260
32 cfg\[52\]:2 lut_in\[14\]:2 0.002624
33 cfg\[52\]:2 n_in\[0\]:2 0.003620
34 cfg\[52\]:2 n_in\[1\]:2 0.012648
35 cfg\[52\]:2 n_in\[2\]:2 0.005247
36 cfg\[52\]:2 n_in\[3\]:2 0.005247
37 cfg\[52\]:2 n_out\[3\]:2 0.002624
38 cfg\[52\]:2 s_in\[1\]:2 0.005068
39 cfg\[52\]:2 s_in\[2\]:2 0.012810
40 cfg\[52\]:2 s_in\[3\]:2 0.006244
41 cfg\[52\]:2 s_out\[2\]:2 0.002624
42 cfg\[52\]:2 u_sm___003_:2 0.002624
43 cfg\[52\]:2 u_sm___005_:2 0.002624
44 cfg\[52\]:2 u_sm___006_:2 0.003620
45 cfg\[52\]:2 u_sm___008_:2 0.003620
46 cfg\[52\]:2 u_sm___009_:2 0.003620
47 cfg\[52\]:2 u_sm___011_:2 0.005068
48 cfg\[52\]:2 u_sm___021_:2 0.003137
49 cfg\[52\]:2 u_sm___032_:2 0.005342
50 cfg\[52\]:2 w_in\[0\]:2 0.006244
51 cfg\[52\]:2 w_in\[2\]:2 0.011619
52 cfg\[52\]:2 w_in\[3\]:2 0.003620
*RES
1 cfg[52] cfg\[52\]:2 162.114700
2 cfg[52] ANTENNA_2:DIODE 0.000000
3 cfg[52] g_slice_3__u_slice___09_:A1 0.000000
*END

*D_NET cfg\[53\] 1.877407
*CONN
*P cfg\[53\] B
*I g_slice_3__u_slice___09_:A2 B
*CAP
1 cfg\[53\]:2 1.853582
2 cfg\[53\]:2 cfg\[54\]:2 0.009019
3 cfg\[53\]:2 e_in\[0\]:2 0.004310
4 cfg\[53\]:2 n_in\[3\]:2 0.002624
5 cfg\[53\]:2 s_in\[0\]:2 0.002624
6 cfg\[53\]:2 s_in\[3\]:2 0.002624
7 cfg\[53\]:2 w_in\[3\]:2 0.002624
*RES
1 cfg[53] cfg\[53\]:2 62.982900
2 cfg[53] g_slice_3__u_slice___09_:A2 0.000000
*END

*D_NET cfg\[54\] 1.920035
*CONN
*P cfg\[54\] B
*I g_slice_3__u_slice___09_:A3 B
*CAP
1 cfg\[54\]:2 1.899981
2 cfg\[54\]:2 e_in\[0\]:2 0.002624
3 cfg\[54\]:2 e_in\[3\]:2 0.004310
4 cfg\[54\]:2 n_in\[3\]:2 0.002624
5 cfg\[54\]:2 s_in\[0\]:2 0.002624
6 cfg\[54\]:2 s_in\[3\]:2 0.002624
7 cfg\[54\]:2 w_in\[0\]:2 0.002624
8 cfg\[54\]:2 w_in\[3\]:2 0.002624
*RES
1 cfg[54] cfg\[54\]:2 60.420300
2 cfg[54] g_slice_3__u_slice___09_:A3 0.000000
*END

*D_NET cfg\[55\] 1.120135
*CONN
*P cfg\[55\] B
*I g_slice_3__u_slice___11_:A0 B
*CAP
1 cfg\[55\]:2 1.091354
2 cfg\[55\]:2 cfg\[56\]:2 0.002624
3 cfg\[55\]:2 cfg\[57\]:2 0.006395
4 cfg\[55\]:2 cfg\[58\]:2 0.002624
5 cfg\[55\]:2 cfg\[59\]:2 0.002624
6 cfg\[55\]:2 cfg\[60\]:2 0.002624
7 cfg\[55\]:2 cfg\[61\]:2 0.004310
8 cfg\[55\]:2 cfg\[62\]:2 0.002624
9 cfg\[55\]:2 w_in\[0\]:2 0.004956
*RES
1 cfg[55] cfg\[55\]:2 59.338000
2 cfg[55] g_slice_3__u_slice___11_:A0 0.000000
*END

*D_NET cfg\[56\] 0.852714
*CONN
*P cfg\[56\] B
*I g_slice_3__u_slice___11_:A1 B
*CAP
1 cfg\[56\]:2 0.831890
2 cfg\[56\]:2 cfg\[57\]:2 0.000060
3 cfg\[56\]:2 cfg\[58\]:2 0.003278
4 cfg\[56\]:2 cfg\[59\]:2 0.002624
5 cfg\[56\]:2 cfg\[62\]:2 0.004310
6 cfg\[56\]:2 lut_in\[13\]:2 0.010552
*RES
1 cfg[56] cfg\[56\]:2 31.054000
2 cfg[56] g_slice_3__u_slice___11_:A1 0.000000
*END

*D_NET cfg\[57\] 0.463063
*CONN
*P cfg\[57\] B
*I g_slice_3__u_slice___11_:A2 B
*CAP
1 cfg\[57\]:2 0.463063
*RES
1 cfg[57] cfg\[57\]:2 47.434200
2 cfg[57] g_slice_3__u_slice___11_:A2 0.000000
*END

*D_NET cfg\[58\] 0.444008
*CONN
*P cfg\[58\] B
*I g_slice_3__u_slice___11_:A3 B
*CAP
1 cfg\[58\]:2 0.444008
*RES
1 cfg[58] cfg\[58\]:2 44.049900
2 cfg[58] g_slice_3__u_slice___11_:A3 0.000000
*END

*D_NET cfg\[59\] 1.406248
*CONN
*P cfg\[59\] B
*I g_slice_3__u_slice___10_:A0 B
*CAP
1 cfg\[59\]:2 1.346012
2 cfg\[59\]:2 cfg\[60\]:2 0.005916
3 cfg\[59\]:2 cfg\[61\]:2 0.009019
4 cfg\[59\]:2 cfg\[62\]:2 0.005995
5 cfg\[59\]:2 cfg\[63\]:2 0.002624
6 cfg\[59\]:2 cfg\[64\]:2 0.002624
7 cfg\[59\]:2 cfg\[66\]:2 0.004956
8 cfg\[59\]:2 e_in\[0\]:2 0.002624
9 cfg\[59\]:2 g_slice_3__u_slice___03_:2 0.002624
10 cfg\[59\]:2 lut_in\[12\]:2 0.009660
11 cfg\[59\]:2 lut_in\[13\]:2 0.011570
12 cfg\[59\]:2 w_in\[0\]:2 0.002624
*RES
1 cfg[59] cfg\[59\]:2 62.376100
2 cfg[59] g_slice_3__u_slice___10_:A0 0.000000
*END

*D_NET cfg\[5\] 4.673354
*CONN
*P cfg\[5\] B
*I g_slice_0__u_slice___11_:A1 B
*CAP
1 cfg\[5\]:2 4.477162
2 cfg\[5\]:2 cfg\[60\]:2 0.003620
3 cfg\[5\]:2 cfg\[61\]:2 0.009171
4 cfg\[5\]:2 cfg\[62\]:2 0.003620
5 cfg\[5\]:2 cfg\[63\]:2 0.003620
6 cfg\[5\]:2 cfg\[64\]:2 0.003620
7 cfg\[5\]:2 cfg\[65\]:2 0.003620
8 cfg\[5\]:2 cfg\[66\]:2 0.003620
9 cfg\[5\]:2 cfg\[67\]:2 0.011183
10 cfg\[5\]:2 cfg\[68\]:2 0.003620
11 cfg\[5\]:2 cfg\[69\]:2 0.011183
12 cfg\[5\]:2 cfg\[6\]:2 0.003620
13 cfg\[5\]:2 cfg\[70\]:2 0.003620
14 cfg\[5\]:2 cfg\[71\]:2 0.003620
15 cfg\[5\]:2 cfg\[72\]:2 0.003672
16 cfg\[5\]:2 cfg\[7\]:2 0.005916
17 cfg\[5\]:2 e_in\[0\]:2 0.007563
18 cfg\[5\]:2 e_in\[1\]:2 0.007563
19 cfg\[5\]:2 e_in\[3\]:2 0.007563
20 cfg\[5\]:2 g_slice_3__u_slice___05_:2 0.007563
21 cfg\[5\]:2 lut_in\[0\]:2 0.005247
22 cfg\[5\]:2 lut_in\[11\]:2 0.007563
23 cfg\[5\]:2 lut_in\[1\]:2 0.002624
24 cfg\[5\]:2 lut_in\[5\]:2 0.003620
25 cfg\[5\]:2 lut_in\[6\]:2 0.003620
26 cfg\[5\]:2 lut_in\[8\]:2 0.003620
27 cfg\[5\]:2 n_in\[0\]:2 0.007563
28 cfg\[5\]:2 n_in\[2\]:2 0.007563
29 cfg\[5\]:2 n_out\[0\]:2 0.001603
30 cfg\[5\]:2 s_in\[1\]:2 0.007563
31 cfg\[5\]:2 s_in\[3\]:2 0.007563
32 cfg\[5\]:2 s_out\[3\]:2 0.007563
33 cfg\[5\]:2 u_sm___063_:2 0.007563
34 cfg\[5\]:2 u_sm___067_:2 0.007777
35 cfg\[5\]:2 w_in\[1\]:2 0.007563
*RES
1 cfg[5] cfg\[5\]:2 37.786300
2 cfg[5] g_slice_0__u_slice___11_:A1 0.000000
*END

*D_NET cfg\[60\] 0.928097
*CONN
*P cfg\[60\] B
*I g_slice_3__u_slice___10_:A1 B
*CAP
1 cfg\[60\]:2 0.907047
2 cfg\[60\]:2 cfg\[61\]:2 0.002624
3 cfg\[60\]:2 cfg\[62\]:2 0.002624
4 cfg\[60\]:2 e_in\[0\]:2 0.003620
5 cfg\[60\]:2 lut_in\[12\]:2 0.009558
6 cfg\[60\]:2 w_in\[0\]:2 0.002624
*RES
1 cfg[60] cfg\[60\]:2 32.141600
2 cfg[60] g_slice_3__u_slice___10_:A1 0.000000
*END

*D_NET cfg\[61\] 1.062740
*CONN
*P cfg\[61\] B
*I g_slice_3__u_slice___10_:A2 B
*CAP
1 cfg\[61\]:2 1.040754
2 cfg\[61\]:2 cfg\[62\]:2 0.002624
3 cfg\[61\]:2 e_in\[0\]:2 0.006244
4 cfg\[61\]:2 lut_in\[12\]:2 0.005247
5 cfg\[61\]:2 lut_in\[13\]:2 0.002624
6 cfg\[61\]:2 w_in\[0\]:2 0.005247
*RES
1 cfg[61] cfg\[61\]:2 53.926800
2 cfg[61] g_slice_3__u_slice___10_:A2 0.000000
*END

*D_NET cfg\[62\] 1.073607
*CONN
*P cfg\[62\] B
*I g_slice_3__u_slice___10_:A3 B
*CAP
1 cfg\[62\]:2 1.057806
2 cfg\[62\]:2 e_in\[0\]:2 0.003620
3 cfg\[62\]:2 lut_in\[12\]:2 0.005247
4 cfg\[62\]:2 lut_in\[13\]:2 0.002624
5 cfg\[62\]:2 w_in\[0\]:2 0.004310
*RES
1 cfg[62] cfg\[62\]:2 50.061400
2 cfg[62] g_slice_3__u_slice___10_:A3 0.000000
*END

*D_NET cfg\[63\] 1.094784
*CONN
*P cfg\[63\] B
*I g_slice_3__u_slice___12_:A0 B
*CAP
1 cfg\[63\]:2 1.072797
2 cfg\[63\]:2 cfg\[64\]:2 0.002624
3 cfg\[63\]:2 cfg\[65\]:2 0.002624
4 cfg\[63\]:2 cfg\[66\]:2 0.002624
5 cfg\[63\]:2 e_in\[0\]:2 0.003620
6 cfg\[63\]:2 g_slice_3__u_slice___03_:2 0.005247
7 cfg\[63\]:2 lut_in\[12\]:2 0.002624
8 cfg\[63\]:2 w_in\[0\]:2 0.002624
*RES
1 cfg[63] cfg\[63\]:2 59.481300
2 cfg[63] g_slice_3__u_slice___12_:A0 0.000000
*END

*D_NET cfg\[64\] 0.939613
*CONN
*P cfg\[64\] B
*I g_slice_3__u_slice___12_:A1 B
*CAP
1 cfg\[64\]:2 0.915382
2 cfg\[64\]:2 cfg\[65\]:2 0.005916
3 cfg\[64\]:2 cfg\[66\]:2 0.002624
4 cfg\[64\]:2 e_in\[0\]:2 0.003620
5 cfg\[64\]:2 g_slice_3__u_slice___03_:2 0.004310
6 cfg\[64\]:2 lut_in\[12\]:2 0.004310
7 cfg\[64\]:2 s_out\[3\]:2 0.000827
8 cfg\[64\]:2 w_in\[0\]:2 0.002624
*RES
1 cfg[64] cfg\[64\]:2 32.310200
2 cfg[64] g_slice_3__u_slice___12_:A1 0.000000
*END

*D_NET cfg\[65\] 1.400925
*CONN
*P cfg\[65\] B
*I g_slice_3__u_slice___12_:A2 B
*CAP
1 cfg\[65\]:2 1.369161
2 cfg\[65\]:2 cfg\[66\]:2 0.005901
3 cfg\[65\]:2 e_in\[0\]:2 0.003620
4 cfg\[65\]:2 g_slice_3__u_slice___03_:2 0.002624
5 cfg\[65\]:2 lut_in\[12\]:2 0.002889
6 cfg\[65\]:2 lut_in\[13\]:2 0.007260
7 cfg\[65\]:2 s_out\[3\]:2 0.003620
8 cfg\[65\]:2 u_sm___067_:2 0.000603
9 cfg\[65\]:2 w_in\[0\]:2 0.005247
*RES
1 cfg[65] cfg\[65\]:2 57.446300
2 cfg[65] g_slice_3__u_slice___12_:A2 0.000000
*END

*D_NET cfg\[66\] 1.401553
*CONN
*P cfg\[66\] B
*I g_slice_3__u_slice___12_:A3 B
*CAP
1 cfg\[66\]:2 1.367343
2 cfg\[66\]:2 e_in\[0\]:2 0.003620
3 cfg\[66\]:2 g_slice_3__u_slice___02_:2 0.013663
4 cfg\[66\]:2 g_slice_3__u_slice___03_:2 0.002624
5 cfg\[66\]:2 lut_in\[12\]:2 0.002624
6 cfg\[66\]:2 lut_in\[13\]:2 0.005435
7 cfg\[66\]:2 s_out\[3\]:2 0.003620
8 cfg\[66\]:2 w_in\[0\]:2 0.002624
*RES
1 cfg[66] cfg\[66\]:2 53.571100
2 cfg[66] g_slice_3__u_slice___12_:A3 0.000000
*END

*D_NET cfg\[67\] 6.142444
*CONN
*P cfg\[67\] B
*I g_slice_3__u_slice___14_:S B
*CAP
1 cfg\[67\]:2 5.828480
2 cfg\[67\]:2 cfg\[68\]:2 0.003620
3 cfg\[67\]:2 cfg\[69\]:2 0.003620
4 cfg\[67\]:2 cfg\[6\]:2 0.003620
5 cfg\[67\]:2 cfg\[70\]:2 0.003620
6 cfg\[67\]:2 cfg\[71\]:2 0.003620
7 cfg\[67\]:2 cfg\[72\]:2 0.003620
8 cfg\[67\]:2 cfg\[73\]:2 0.003620
9 cfg\[67\]:2 cfg\[74\]:2 0.003620
10 cfg\[67\]:2 cfg\[75\]:2 0.020272
11 cfg\[67\]:2 cfg\[76\]:2 0.008205
12 cfg\[67\]:2 cfg\[77\]:2 0.003620
13 cfg\[67\]:2 cfg\[78\]:2 0.003620
14 cfg\[67\]:2 cfg\[79\]:2 0.003620
15 cfg\[67\]:2 cfg\[7\]:2 0.003620
16 cfg\[67\]:2 cfg\[80\]:2 0.003620
17 cfg\[67\]:2 cfg\[81\]:2 0.003620
18 cfg\[67\]:2 cfg\[82\]:2 0.003620
19 cfg\[67\]:2 cfg\[83\]:2 0.003620
20 cfg\[67\]:2 cfg\[84\]:2 0.003620
21 cfg\[67\]:2 cfg\[85\]:2 0.003620
22 cfg\[67\]:2 cfg\[86\]:2 0.018960
23 cfg\[67\]:2 cfg\[87\]:2 0.003620
24 cfg\[67\]:2 cfg\[88\]:2 0.011183
25 cfg\[67\]:2 cfg\[89\]:2 0.003620
26 cfg\[67\]:2 cfg\[8\]:2 0.003620
27 cfg\[67\]:2 cfg\[90\]:2 0.011183
28 cfg\[67\]:2 cfg\[91\]:2 0.005068
29 cfg\[67\]:2 cfg\[92\]:2 0.003620
30 cfg\[67\]:2 cfg\[93\]:2 0.003620
31 cfg\[67\]:2 cfg\[94\]:2 0.003137
32 cfg\[67\]:2 cfg\[95\]:2 0.005482
33 cfg\[67\]:2 cfg\[99\]:2 0.006658
34 cfg\[67\]:2 clknet_1_0__leaf_clk:2 0.007563
35 cfg\[67\]:2 g_slice_3__u_slice___05_:2 0.011183
36 cfg\[67\]:2 g_slice_3__u_slice__ff_q:2 0.003620
37 cfg\[67\]:2 lut_in\[10\]:2 0.007563
38 cfg\[67\]:2 lut_in\[11\]:2 0.007563
39 cfg\[67\]:2 lut_in\[5\]:2 0.007563
40 cfg\[67\]:2 lut_in\[7\]:2 0.003620
41 cfg\[67\]:2 lut_in\[8\]:2 0.007563
42 cfg\[67\]:2 n_in\[2\]:2 0.007563
43 cfg\[67\]:2 n_out\[0\]:2 0.003620
44 cfg\[67\]:2 n_out\[1\]:2 0.005068
45 cfg\[67\]:2 n_out\[2\]:2 0.007563
46 cfg\[67\]:2 n_out\[3\]:2 0.007563
47 cfg\[67\]:2 s_in\[0\]:2 0.007563
48 cfg\[67\]:2 s_in\[1\]:2 0.007563
49 cfg\[67\]:2 s_in\[2\]:2 0.007563
50 cfg\[67\]:2 s_out\[3\]:2 0.007563
51 cfg\[67\]:2 w_in\[0\]:2 0.007563
52 cfg\[67\]:2 w_in\[1\]:2 0.007563
53 cfg\[67\]:2 w_in\[2\]:2 0.007563
*RES
1 cfg[67] cfg\[67\]:2 71.959400
2 cfg[67] g_slice_3__u_slice___14_:S 0.000000
*END

*D_NET cfg\[68\] 2.615972
*CONN
*P cfg\[68\] B
*I u_sm___164_:A1 B
*I u_sm___163_:B B
*I u_sm___161_:S0 B
*CAP
1 cfg\[68\]:2 2.525157
2 cfg\[68\]:2 cfg\[69\]:2 0.007930
3 cfg\[68\]:2 cfg\[6\]:2 0.004310
4 cfg\[68\]:2 cfg\[70\]:2 0.005548
5 cfg\[68\]:2 cfg\[71\]:2 0.007871
6 cfg\[68\]:2 cfg\[72\]:2 0.002624
7 cfg\[68\]:2 cfg\[75\]:2 0.012462
8 cfg\[68\]:2 e_in\[0\]:2 0.008205
9 cfg\[68\]:2 e_in\[1\]:2 0.003620
10 cfg\[68\]:2 e_in\[3\]:2 0.003620
11 cfg\[68\]:2 n_out\[0\]:2 0.002624
12 cfg\[68\]:2 s_in\[0\]:2 0.003206
13 cfg\[68\]:2 s_out\[3\]:2 0.003620
14 cfg\[68\]:2 u_sm___061_:2 0.004310
15 cfg\[68\]:2 u_sm___063_:2 0.007343
16 cfg\[68\]:2 u_sm___065_:2 0.002624
17 cfg\[68\]:2 u_sm___066_:2 0.003206
18 cfg\[68\]:2 u_sm___067_:2 0.005068
19 cfg\[68\]:2 w_in\[0\]:2 0.002624
*RES
1 cfg[68] cfg\[68\]:2 178.748500
2 cfg[68] u_sm___164_:A1 0.000000
3 cfg[68] u_sm___163_:B 0.000000
4 cfg[68] u_sm___161_:S0 0.000000
*END

*D_NET cfg\[69\] 2.352901
*CONN
*P cfg\[69\] B
*I u_sm___165_:A1 B
*I u_sm___164_:C1 B
*CAP
1 cfg\[69\]:2 2.282509
2 cfg\[69\]:2 cfg\[6\]:2 0.006244
3 cfg\[69\]:2 cfg\[70\]:2 0.003620
4 cfg\[69\]:2 cfg\[71\]:2 0.011514
5 cfg\[69\]:2 cfg\[72\]:2 0.003620
6 cfg\[69\]:2 cfg\[75\]:2 0.003620
7 cfg\[69\]:2 e_in\[0\]:2 0.003620
8 cfg\[69\]:2 e_in\[1\]:2 0.002624
9 cfg\[69\]:2 e_in\[3\]:2 0.003620
10 cfg\[69\]:2 g_slice_3__u_slice___01_:2 0.004310
11 cfg\[69\]:2 g_slice_3__u_slice___05_:2 0.002624
12 cfg\[69\]:2 s_in\[0\]:2 0.006244
13 cfg\[69\]:2 s_out\[3\]:2 0.003620
14 cfg\[69\]:2 u_sm___061_:2 0.003620
15 cfg\[69\]:2 u_sm___065_:2 0.002624
16 cfg\[69\]:2 u_sm___067_:2 0.006244
17 cfg\[69\]:2 w_in\[0\]:2 0.002624
*RES
1 cfg[69] cfg\[69\]:2 68.902300
2 cfg[69] u_sm___165_:A1 0.000000
3 cfg[69] u_sm___164_:C1 0.000000
*END

*D_NET cfg\[6\] 3.246061
*CONN
*P cfg\[6\] B
*I g_slice_0__u_slice___11_:A2 B
*CAP
1 cfg\[6\]:2 3.153705
2 cfg\[6\]:2 e_in\[0\]:2 0.007240
3 cfg\[6\]:2 e_in\[1\]:2 0.003620
4 cfg\[6\]:2 e_in\[2\]:2 0.002624
5 cfg\[6\]:2 e_in\[3\]:2 0.003620
6 cfg\[6\]:2 g_slice_3__u_slice___05_:2 0.004310
7 cfg\[6\]:2 lut_in\[11\]:2 0.003620
8 cfg\[6\]:2 lut_in\[5\]:2 0.002624
9 cfg\[6\]:2 lut_in\[6\]:2 0.002624
10 cfg\[6\]:2 lut_in\[8\]:2 0.003620
11 cfg\[6\]:2 lut_in\[9\]:2 0.002624
12 cfg\[6\]:2 n_in\[0\]:2 0.006244
13 cfg\[6\]:2 n_in\[1\]:2 0.005247
14 cfg\[6\]:2 n_in\[2\]:2 0.002624
15 cfg\[6\]:2 n_in\[3\]:2 0.002624
16 cfg\[6\]:2 s_in\[0\]:2 0.002624
17 cfg\[6\]:2 s_in\[1\]:2 0.003620
18 cfg\[6\]:2 s_in\[2\]:2 0.002624
19 cfg\[6\]:2 s_in\[3\]:2 0.003620
20 cfg\[6\]:2 s_out\[3\]:2 0.003620
21 cfg\[6\]:2 u_sm___065_:2 0.005247
22 cfg\[6\]:2 u_sm___067_:2 0.006244
23 cfg\[6\]:2 w_in\[0\]:2 0.002624
24 cfg\[6\]:2 w_in\[1\]:2 0.003620
25 cfg\[6\]:2 w_in\[2\]:2 0.002624
26 cfg\[6\]:2 w_in\[3\]:2 0.002624
*RES
1 cfg[6] cfg\[6\]:2 78.322000
2 cfg[6] g_slice_0__u_slice___11_:A2 0.000000
*END

*D_NET cfg\[70\] 2.080716
*CONN
*P cfg\[70\] B
*I u_sm___164_:B2 B
*I u_sm___162_:S B
*I u_sm___161_:S1 B
*CAP
1 cfg\[70\]:2 2.018957
2 cfg\[70\]:2 cfg\[71\]:2 0.007871
3 cfg\[70\]:2 cfg\[72\]:2 0.002624
4 cfg\[70\]:2 cfg\[75\]:2 0.002624
5 cfg\[70\]:2 e_in\[0\]:2 0.003620
6 cfg\[70\]:2 e_in\[1\]:2 0.005068
7 cfg\[70\]:2 e_in\[3\]:2 0.003620
8 cfg\[70\]:2 n_out\[0\]:2 0.002624
9 cfg\[70\]:2 s_in\[0\]:2 0.002624
10 cfg\[70\]:2 s_out\[3\]:2 0.003620
11 cfg\[70\]:2 u_sm___063_:2 0.007240
12 cfg\[70\]:2 u_sm___065_:2 0.009670
13 cfg\[70\]:2 u_sm___066_:2 0.004310
14 cfg\[70\]:2 u_sm___067_:2 0.003620
15 cfg\[70\]:2 w_in\[0\]:2 0.002624
*RES
1 cfg[70] cfg\[70\]:2 95.267400
2 cfg[70] u_sm___164_:B2 0.000000
3 cfg[70] u_sm___162_:S 0.000000
4 cfg[70] u_sm___161_:S1 0.000000
*END

*D_NET cfg\[71\] 2.779569
*CONN
*P cfg\[71\] B
*I u_sm___152_:A1 B
*I u_sm___151_:C1 B
*CAP
1 cfg\[71\]:2 2.662174
2 cfg\[71\]:2 cfg\[72\]:2 0.002624
3 cfg\[71\]:2 cfg\[73\]:2 0.002624
4 cfg\[71\]:2 cfg\[74\]:2 0.002624
5 cfg\[71\]:2 cfg\[75\]:2 0.005247
6 cfg\[71\]:2 cfg\[76\]:2 0.002624
7 cfg\[71\]:2 cfg\[77\]:2 0.002624
8 cfg\[71\]:2 e_in\[0\]:2 0.003620
9 cfg\[71\]:2 e_in\[1\]:2 0.003620
10 cfg\[71\]:2 e_in\[3\]:2 0.003620
11 cfg\[71\]:2 n_out\[0\]:2 0.005436
12 cfg\[71\]:2 n_out\[1\]:2 0.004477
13 cfg\[71\]:2 s_in\[0\]:2 0.013895
14 cfg\[71\]:2 s_out\[3\]:2 0.009171
15 cfg\[71\]:2 u_sm___011_:2 0.004310
16 cfg\[71\]:2 u_sm___060_:2 0.003437
17 cfg\[71\]:2 u_sm___061_:2 0.002624
18 cfg\[71\]:2 u_sm___063_:2 0.012111
19 cfg\[71\]:2 u_sm___064_:2 0.003894
20 cfg\[71\]:2 u_sm___065_:2 0.004461
21 cfg\[71\]:2 u_sm___066_:2 0.011637
22 cfg\[71\]:2 u_sm___067_:2 0.008254
23 cfg\[71\]:2 w_in\[0\]:2 0.004461
*RES
1 cfg[71] cfg\[71\]:2 78.154100
2 cfg[71] u_sm___152_:A1 0.000000
3 cfg[71] u_sm___151_:C1 0.000000
*END

*D_NET cfg\[72\] 2.843001
*CONN
*P cfg\[72\] B
*I u_sm___151_:A1 B
*I u_sm___150_:B B
*I u_sm___148_:S0 B
*CAP
1 cfg\[72\]:2 2.761122
2 cfg\[72\]:2 cfg\[73\]:2 0.005247
3 cfg\[72\]:2 cfg\[74\]:2 0.005247
4 cfg\[72\]:2 cfg\[75\]:2 0.005247
5 cfg\[72\]:2 cfg\[76\]:2 0.002624
6 cfg\[72\]:2 cfg\[77\]:2 0.002624
7 cfg\[72\]:2 e_in\[0\]:2 0.003620
8 cfg\[72\]:2 e_in\[1\]:2 0.003620
9 cfg\[72\]:2 n_in\[0\]:2 0.003137
10 cfg\[72\]:2 n_in\[2\]:2 0.003620
11 cfg\[72\]:2 s_in\[0\]:2 0.005501
12 cfg\[72\]:2 s_out\[3\]:2 0.003620
13 cfg\[72\]:2 u_sm___011_:2 0.004310
14 cfg\[72\]:2 u_sm___061_:2 0.005247
15 cfg\[72\]:2 u_sm___062_:2 0.005247
16 cfg\[72\]:2 u_sm___063_:2 0.012414
17 cfg\[72\]:2 u_sm___066_:2 0.006934
18 cfg\[72\]:2 u_sm___067_:2 0.003620
*RES
1 cfg[72] cfg\[72\]:2 181.291500
2 cfg[72] u_sm___151_:A1 0.000000
3 cfg[72] u_sm___150_:B 0.000000
4 cfg[72] u_sm___148_:S0 0.000000
*END

*D_NET cfg\[73\] 2.273183
*CONN
*P cfg\[73\] B
*I u_sm___151_:B2 B
*I u_sm___149_:S B
*I u_sm___148_:S1 B
*CAP
1 cfg\[73\]:2 2.191311
2 cfg\[73\]:2 cfg\[74\]:2 0.002624
3 cfg\[73\]:2 cfg\[75\]:2 0.002624
4 cfg\[73\]:2 cfg\[76\]:2 0.009839
5 cfg\[73\]:2 cfg\[77\]:2 0.002624
6 cfg\[73\]:2 cfg\[78\]:2 0.002624
7 cfg\[73\]:2 e_in\[0\]:2 0.006244
8 cfg\[73\]:2 e_in\[1\]:2 0.003620
9 cfg\[73\]:2 e_in\[3\]:2 0.003620
10 cfg\[73\]:2 n_out\[0\]:2 0.002624
11 cfg\[73\]:2 n_out\[1\]:2 0.005247
12 cfg\[73\]:2 s_in\[0\]:2 0.002624
13 cfg\[73\]:2 s_in\[1\]:2 0.007980
14 cfg\[73\]:2 s_out\[3\]:2 0.003620
15 cfg\[73\]:2 u_sm___063_:2 0.002624
16 cfg\[73\]:2 u_sm___064_:2 0.009839
17 cfg\[73\]:2 w_in\[1\]:2 0.013495
*RES
1 cfg[73] cfg\[73\]:2 97.199900
2 cfg[73] u_sm___151_:B2 0.000000
3 cfg[73] u_sm___149_:S 0.000000
4 cfg[73] u_sm___148_:S1 0.000000
*END

*D_NET cfg\[74\] 3.176762
*CONN
*P cfg\[74\] B
*I u_sm___074_:A1 B
*I u_sm___073_:B B
*I u_sm___069_:S1 B
*CAP
1 cfg\[74\]:2 3.017296
2 cfg\[74\]:2 cfg\[75\]:2 0.005247
3 cfg\[74\]:2 cfg\[76\]:2 0.019458
4 cfg\[74\]:2 e_in\[0\]:2 0.006244
5 cfg\[74\]:2 e_in\[1\]:2 0.003620
6 cfg\[74\]:2 e_in\[2\]:2 0.002624
7 cfg\[74\]:2 e_in\[3\]:2 0.003620
8 cfg\[74\]:2 lut_in\[10\]:2 0.002624
9 cfg\[74\]:2 lut_in\[11\]:2 0.005068
10 cfg\[74\]:2 n_in\[0\]:2 0.003620
11 cfg\[74\]:2 n_in\[1\]:2 0.002624
12 cfg\[74\]:2 n_in\[2\]:2 0.003620
13 cfg\[74\]:2 n_in\[3\]:2 0.002624
14 cfg\[74\]:2 n_out\[0\]:2 0.002624
15 cfg\[74\]:2 n_out\[1\]:2 0.006934
16 cfg\[74\]:2 s_in\[0\]:2 0.015367
17 cfg\[74\]:2 s_in\[1\]:2 0.006244
18 cfg\[74\]:2 s_in\[2\]:2 0.003620
19 cfg\[74\]:2 s_in\[3\]:2 0.005068
20 cfg\[74\]:2 s_out\[3\]:2 0.003620
21 cfg\[74\]:2 u_sm___003_:2 0.008699
22 cfg\[74\]:2 u_sm___005_:2 0.005247
23 cfg\[74\]:2 u_sm___006_:2 0.023542
24 cfg\[74\]:2 u_sm___061_:2 0.004310
25 cfg\[74\]:2 u_sm___063_:2 0.002624
26 cfg\[74\]:2 w_in\[1\]:2 0.007950
27 cfg\[74\]:2 w_in\[3\]:2 0.002624
*RES
1 cfg[74] cfg\[74\]:2 101.774400
2 cfg[74] u_sm___074_:A1 0.000000
3 cfg[74] u_sm___073_:B 0.000000
4 cfg[74] u_sm___069_:S1 0.000000
*END

*D_NET cfg\[75\] 3.167798
*CONN
*P cfg\[75\] B
*I u_sm___075_:A1 B
*I u_sm___074_:C1 B
*CAP
1 cfg\[75\]:2 3.075907
2 cfg\[75\]:2 cfg\[76\]:2 0.002624
3 cfg\[75\]:2 cfg\[7\]:2 0.002624
4 cfg\[75\]:2 e_in\[0\]:2 0.003620
5 cfg\[75\]:2 e_in\[1\]:2 0.003620
6 cfg\[75\]:2 e_in\[3\]:2 0.003620
7 cfg\[75\]:2 lut_in\[10\]:2 0.002624
8 cfg\[75\]:2 n_in\[0\]:2 0.003620
9 cfg\[75\]:2 n_in\[2\]:2 0.003620
10 cfg\[75\]:2 n_in\[3\]:2 0.002624
11 cfg\[75\]:2 n_out\[0\]:2 0.002624
12 cfg\[75\]:2 n_out\[2\]:2 0.004477
13 cfg\[75\]:2 s_in\[0\]:2 0.005679
14 cfg\[75\]:2 s_in\[1\]:2 0.003620
15 cfg\[75\]:2 s_out\[3\]:2 0.003620
16 cfg\[75\]:2 u_sm___001_:2 0.003437
17 cfg\[75\]:2 u_sm___003_:2 0.005247
18 cfg\[75\]:2 u_sm___005_:2 0.004819
19 cfg\[75\]:2 u_sm___006_:2 0.005741
20 cfg\[75\]:2 u_sm___062_:2 0.004819
21 cfg\[75\]:2 u_sm___063_:2 0.006244
22 cfg\[75\]:2 u_sm___067_:2 0.002624
23 cfg\[75\]:2 w_in\[1\]:2 0.005068
24 cfg\[75\]:2 w_in\[3\]:2 0.005276
*RES
1 cfg[75] cfg\[75\]:2 84.010200
2 cfg[75] u_sm___075_:A1 0.000000
3 cfg[75] u_sm___074_:C1 0.000000
*END

*D_NET cfg\[76\] 4.484908
*CONN
*P cfg\[76\] B
*I u_sm___074_:B2 B
*I u_sm___071_:S B
*I u_sm___069_:S0 B
*CAP
1 cfg\[76\]:2 4.342408
2 cfg\[76\]:2 cfg\[77\]:2 0.007871
3 cfg\[76\]:2 cfg\[78\]:2 0.005247
4 cfg\[76\]:2 cfg\[7\]:2 0.005247
5 cfg\[76\]:2 e_in\[0\]:2 0.006244
6 cfg\[76\]:2 e_in\[1\]:2 0.009171
7 cfg\[76\]:2 e_in\[2\]:2 0.002624
8 cfg\[76\]:2 e_in\[3\]:2 0.003620
9 cfg\[76\]:2 g_slice_3__u_slice___05_:2 0.008205
10 cfg\[76\]:2 lut_in\[10\]:2 0.002624
11 cfg\[76\]:2 lut_in\[11\]:2 0.003620
12 cfg\[76\]:2 lut_in\[4\]:2 0.002624
13 cfg\[76\]:2 n_in\[0\]:2 0.007878
14 cfg\[76\]:2 n_in\[1\]:2 0.002624
15 cfg\[76\]:2 n_in\[2\]:2 0.003620
16 cfg\[76\]:2 n_in\[3\]:2 0.002624
17 cfg\[76\]:2 n_out\[0\]:2 0.002624
18 cfg\[76\]:2 n_out\[1\]:2 0.002624
19 cfg\[76\]:2 s_in\[0\]:2 0.002624
20 cfg\[76\]:2 s_in\[1\]:2 0.006244
21 cfg\[76\]:2 s_in\[2\]:2 0.007930
22 cfg\[76\]:2 s_in\[3\]:2 0.003620
23 cfg\[76\]:2 s_out\[3\]:2 0.003620
24 cfg\[76\]:2 u_sm___003_:2 0.011142
25 cfg\[76\]:2 u_sm___005_:2 0.002624
26 cfg\[76\]:2 u_sm___006_:2 0.002624
27 cfg\[76\]:2 u_sm___011_:2 0.000827
28 cfg\[76\]:2 u_sm___060_:2 0.004310
29 cfg\[76\]:2 w_in\[1\]:2 0.007240
30 cfg\[76\]:2 w_in\[2\]:2 0.007980
31 cfg\[76\]:2 w_in\[3\]:2 0.002624
*RES
1 cfg[76] cfg\[76\]:2 202.393500
2 cfg[76] u_sm___074_:B2 0.000000
3 cfg[76] u_sm___071_:S 0.000000
4 cfg[76] u_sm___069_:S0 0.000000
*END

*D_NET cfg\[77\] 3.871136
*CONN
*P cfg\[77\] B
*I u_sm___080_:A1 B
*I u_sm___079_:B B
*I u_sm___077_:S0 B
*CAP
1 cfg\[77\]:2 3.733698
2 cfg\[77\]:2 cfg\[78\]:2 0.006934
3 cfg\[77\]:2 cfg\[79\]:2 0.007871
4 cfg\[77\]:2 cfg\[7\]:2 0.005247
5 cfg\[77\]:2 cfg\[80\]:2 0.007188
6 cfg\[77\]:2 e_in\[0\]:2 0.006244
7 cfg\[77\]:2 e_in\[1\]:2 0.003620
8 cfg\[77\]:2 e_in\[3\]:2 0.003620
9 cfg\[77\]:2 n_in\[0\]:2 0.009929
10 cfg\[77\]:2 n_in\[2\]:2 0.008205
11 cfg\[77\]:2 n_out\[0\]:2 0.002624
12 cfg\[77\]:2 n_out\[1\]:2 0.002624
13 cfg\[77\]:2 n_out\[2\]:2 0.000827
14 cfg\[77\]:2 s_in\[0\]:2 0.002624
15 cfg\[77\]:2 s_in\[1\]:2 0.011244
16 cfg\[77\]:2 s_in\[3\]:2 0.000582
17 cfg\[77\]:2 s_out\[3\]:2 0.005602
18 cfg\[77\]:2 u_sm___006_:2 0.002624
19 cfg\[77\]:2 u_sm___009_:2 0.013084
20 cfg\[77\]:2 u_sm___010_:2 0.010495
21 cfg\[77\]:2 u_sm___011_:2 0.003620
22 cfg\[77\]:2 u_sm___063_:2 0.004310
23 cfg\[77\]:2 w_in\[1\]:2 0.018320
*RES
1 cfg[77] cfg\[77\]:2 190.699300
2 cfg[77] u_sm___080_:A1 0.000000
3 cfg[77] u_sm___079_:B 0.000000
4 cfg[77] u_sm___077_:S0 0.000000
*END

*D_NET cfg\[78\] 2.625312
*CONN
*P cfg\[78\] B
*I u_sm___081_:A1 B
*I u_sm___080_:C1 B
*CAP
1 cfg\[78\]:2 2.542219
2 cfg\[78\]:2 cfg\[79\]:2 0.011015
3 cfg\[78\]:2 cfg\[7\]:2 0.003620
4 cfg\[78\]:2 cfg\[80\]:2 0.002624
5 cfg\[78\]:2 e_in\[0\]:2 0.006244
6 cfg\[78\]:2 e_in\[1\]:2 0.002624
7 cfg\[78\]:2 e_in\[3\]:2 0.002624
8 cfg\[78\]:2 lut_in\[10\]:2 0.003677
9 cfg\[78\]:2 n_in\[0\]:2 0.003620
10 cfg\[78\]:2 n_in\[2\]:2 0.003620
11 cfg\[78\]:2 n_out\[0\]:2 0.002624
12 cfg\[78\]:2 n_out\[1\]:2 0.002624
13 cfg\[78\]:2 n_out\[2\]:2 0.003620
14 cfg\[78\]:2 s_in\[0\]:2 0.002624
15 cfg\[78\]:2 s_in\[1\]:2 0.002624
16 cfg\[78\]:2 s_in\[3\]:2 0.002624
17 cfg\[78\]:2 s_out\[3\]:2 0.003620
18 cfg\[78\]:2 u_sm___009_:2 0.003620
19 cfg\[78\]:2 u_sm___010_:2 0.003620
20 cfg\[78\]:2 u_sm___011_:2 0.004310
21 cfg\[78\]:2 u_sm___060_:2 0.006447
22 cfg\[78\]:2 w_in\[1\]:2 0.005068
*RES
1 cfg[78] cfg\[78\]:2 71.959500
2 cfg[78] u_sm___081_:A1 0.000000
3 cfg[78] u_sm___080_:C1 0.000000
*END

*D_NET cfg\[79\] 3.095170
*CONN
*P cfg\[79\] B
*I u_sm___080_:B2 B
*I u_sm___078_:S B
*I u_sm___077_:S1 B
*CAP
1 cfg\[79\]:2 2.959231
2 cfg\[79\]:2 cfg\[7\]:2 0.002624
3 cfg\[79\]:2 e_in\[0\]:2 0.023717
4 cfg\[79\]:2 e_in\[1\]:2 0.002624
5 cfg\[79\]:2 e_in\[3\]:2 0.002624
6 cfg\[79\]:2 lut_in\[10\]:2 0.002624
7 cfg\[79\]:2 n_in\[0\]:2 0.003620
8 cfg\[79\]:2 n_in\[2\]:2 0.003620
9 cfg\[79\]:2 n_in\[3\]:2 0.002624
10 cfg\[79\]:2 n_out\[0\]:2 0.002624
11 cfg\[79\]:2 n_out\[1\]:2 0.002624
12 cfg\[79\]:2 n_out\[2\]:2 0.003620
13 cfg\[79\]:2 n_out\[3\]:2 0.002624
14 cfg\[79\]:2 s_in\[0\]:2 0.002624
15 cfg\[79\]:2 s_in\[1\]:2 0.014063
16 cfg\[79\]:2 s_in\[3\]:2 0.005356
17 cfg\[79\]:2 s_out\[3\]:2 0.003620
18 cfg\[79\]:2 u_sm___008_:2 0.004461
19 cfg\[79\]:2 u_sm___009_:2 0.007496
20 cfg\[79\]:2 u_sm___010_:2 0.002624
21 cfg\[79\]:2 u_sm___011_:2 0.028635
22 cfg\[79\]:2 u_sm___060_:2 0.005247
23 cfg\[79\]:2 w_in\[1\]:2 0.003620
24 cfg\[79\]:2 w_in\[3\]:2 0.002624
*RES
1 cfg[79] cfg\[79\]:2 106.226700
2 cfg[79] u_sm___080_:B2 0.000000
3 cfg[79] u_sm___078_:S 0.000000
4 cfg[79] u_sm___077_:S1 0.000000
*END

*D_NET cfg\[7\] 3.700052
*CONN
*P cfg\[7\] B
*I g_slice_0__u_slice___11_:A3 B
*CAP
1 cfg\[7\]:2 3.540458
2 cfg\[7\]:2 e_in\[0\]:2 0.006244
3 cfg\[7\]:2 e_in\[1\]:2 0.007930
4 cfg\[7\]:2 e_in\[2\]:2 0.002624
5 cfg\[7\]:2 e_in\[3\]:2 0.003620
6 cfg\[7\]:2 g_slice_3__u_slice___05_:2 0.003620
7 cfg\[7\]:2 lut_in\[0\]:2 0.003206
8 cfg\[7\]:2 lut_in\[10\]:2 0.002624
9 cfg\[7\]:2 lut_in\[11\]:2 0.003620
10 cfg\[7\]:2 lut_in\[1\]:2 0.007260
11 cfg\[7\]:2 lut_in\[4\]:2 0.002624
12 cfg\[7\]:2 lut_in\[5\]:2 0.003620
13 cfg\[7\]:2 lut_in\[6\]:2 0.002624
14 cfg\[7\]:2 lut_in\[8\]:2 0.005068
15 cfg\[7\]:2 n_in\[0\]:2 0.003620
16 cfg\[7\]:2 n_in\[1\]:2 0.002624
17 cfg\[7\]:2 n_in\[2\]:2 0.003620
18 cfg\[7\]:2 n_in\[3\]:2 0.002624
19 cfg\[7\]:2 n_out\[0\]:2 0.002624
20 cfg\[7\]:2 n_out\[1\]:2 0.002624
21 cfg\[7\]:2 n_out\[2\]:2 0.005602
22 cfg\[7\]:2 s_in\[0\]:2 0.002624
23 cfg\[7\]:2 s_in\[1\]:2 0.006244
24 cfg\[7\]:2 s_in\[2\]:2 0.003620
25 cfg\[7\]:2 s_in\[3\]:2 0.003620
26 cfg\[7\]:2 s_out\[3\]:2 0.003620
27 cfg\[7\]:2 u_sm___006_:2 0.009558
28 cfg\[7\]:2 u_sm___010_:2 0.016210
29 cfg\[7\]:2 u_sm___011_:2 0.007343
30 cfg\[7\]:2 u_sm___060_:2 0.019865
31 cfg\[7\]:2 w_in\[1\]:2 0.003620
32 cfg\[7\]:2 w_in\[2\]:2 0.002624
33 cfg\[7\]:2 w_in\[3\]:2 0.002624
*RES
1 cfg[7] cfg\[7\]:2 78.697300
2 cfg[7] g_slice_0__u_slice___11_:A3 0.000000
*END

*D_NET cfg\[80\] 3.076208
*CONN
*P cfg\[80\] B
*I u_sm___085_:A1 B
*I u_sm___084_:B B
*I u_sm___082_:S0 B
*CAP
1 cfg\[80\]:2 2.998679
2 cfg\[80\]:2 cfg\[81\]:2 0.002624
3 cfg\[80\]:2 cfg\[82\]:2 0.007871
4 cfg\[80\]:2 cfg\[85\]:2 0.004217
5 cfg\[80\]:2 e_in\[0\]:2 0.002624
6 cfg\[80\]:2 e_in\[1\]:2 0.002624
7 cfg\[80\]:2 e_in\[3\]:2 0.004310
8 cfg\[80\]:2 n_in\[2\]:2 0.003620
9 cfg\[80\]:2 n_out\[0\]:2 0.002624
10 cfg\[80\]:2 n_out\[1\]:2 0.002624
11 cfg\[80\]:2 n_out\[2\]:2 0.003620
12 cfg\[80\]:2 s_in\[0\]:2 0.015086
13 cfg\[80\]:2 s_in\[1\]:2 0.002624
14 cfg\[80\]:2 s_in\[3\]:2 0.002624
15 cfg\[80\]:2 s_out\[3\]:2 0.003620
16 cfg\[80\]:2 u_sm___008_:2 0.002624
17 cfg\[80\]:2 u_sm___015_:2 0.007346
18 cfg\[80\]:2 w_in\[0\]:2 0.002624
19 cfg\[80\]:2 w_in\[1\]:2 0.004223
*RES
1 cfg[80] cfg\[80\]:2 183.551600
2 cfg[80] u_sm___085_:A1 0.000000
3 cfg[80] u_sm___084_:B 0.000000
4 cfg[80] u_sm___082_:S0 0.000000
*END

*D_NET cfg\[81\] 1.688989
*CONN
*P cfg\[81\] B
*I u_sm___086_:A1 B
*I u_sm___085_:C1 B
*CAP
1 cfg\[81\]:2 1.625344
2 cfg\[81\]:2 cfg\[82\]:2 0.005247
3 cfg\[81\]:2 cfg\[83\]:2 0.002624
4 cfg\[81\]:2 cfg\[84\]:2 0.002624
5 cfg\[81\]:2 cfg\[85\]:2 0.002624
6 cfg\[81\]:2 cfg\[88\]:2 0.002624
7 cfg\[81\]:2 e_in\[0\]:2 0.005247
8 cfg\[81\]:2 e_out\[0\]:2 0.004477
9 cfg\[81\]:2 n_out\[0\]:2 0.002624
10 cfg\[81\]:2 n_out\[1\]:2 0.002624
11 cfg\[81\]:2 n_out\[2\]:2 0.003620
12 cfg\[81\]:2 s_in\[0\]:2 0.005247
13 cfg\[81\]:2 s_in\[1\]:2 0.002624
14 cfg\[81\]:2 s_out\[3\]:2 0.003620
15 cfg\[81\]:2 u_sm___010_:2 0.006934
16 cfg\[81\]:2 u_sm___012_:2 0.007748
17 cfg\[81\]:2 w_in\[1\]:2 0.003137
*RES
1 cfg[81] cfg\[81\]:2 67.412800
2 cfg[81] u_sm___086_:A1 0.000000
3 cfg[81] u_sm___085_:C1 0.000000
*END

*D_NET cfg\[82\] 2.659218
*CONN
*P cfg\[82\] B
*I u_sm___085_:B2 B
*I u_sm___083_:S B
*I u_sm___082_:S1 B
*CAP
1 cfg\[82\]:2 2.545766
2 cfg\[82\]:2 cfg\[83\]:2 0.009839
3 cfg\[82\]:2 cfg\[85\]:2 0.005013
4 cfg\[82\]:2 cfg\[88\]:2 0.002624
5 cfg\[82\]:2 e_in\[0\]:2 0.002624
6 cfg\[82\]:2 e_in\[1\]:2 0.002624
7 cfg\[82\]:2 e_in\[3\]:2 0.002624
8 cfg\[82\]:2 n_in\[0\]:2 0.003137
9 cfg\[82\]:2 n_in\[2\]:2 0.003620
10 cfg\[82\]:2 n_out\[0\]:2 0.002624
11 cfg\[82\]:2 n_out\[1\]:2 0.002624
12 cfg\[82\]:2 n_out\[2\]:2 0.003620
13 cfg\[82\]:2 s_in\[0\]:2 0.005247
14 cfg\[82\]:2 s_in\[1\]:2 0.002624
15 cfg\[82\]:2 s_in\[3\]:2 0.002624
16 cfg\[82\]:2 s_out\[3\]:2 0.005602
17 cfg\[82\]:2 u_sm___008_:2 0.004310
18 cfg\[82\]:2 u_sm___010_:2 0.005247
19 cfg\[82\]:2 u_sm___014_:2 0.011680
20 cfg\[82\]:2 u_sm___015_:2 0.025281
21 cfg\[82\]:2 w_in\[0\]:2 0.002624
22 cfg\[82\]:2 w_in\[1\]:2 0.007240
*RES
1 cfg[82] cfg\[82\]:2 101.367100
2 cfg[82] u_sm___085_:B2 0.000000
3 cfg[82] u_sm___083_:S 0.000000
4 cfg[82] u_sm___082_:S1 0.000000
*END

*D_NET cfg\[83\] 4.038650
*CONN
*P cfg\[83\] B
*I u_sm___090_:A1 B
*I u_sm___089_:B B
*I u_sm___087_:S0 B
*CAP
1 cfg\[83\]:2 3.859674
2 cfg\[83\]:2 cfg\[84\]:2 0.011550
3 cfg\[83\]:2 cfg\[85\]:2 0.013997
4 cfg\[83\]:2 cfg\[87\]:2 0.006244
5 cfg\[83\]:2 cfg\[88\]:2 0.006244
6 cfg\[83\]:2 cfg\[89\]:2 0.004310
7 cfg\[83\]:2 cfg\[8\]:2 0.006244
8 cfg\[83\]:2 cfg\[90\]:2 0.006757
9 cfg\[83\]:2 e_in\[0\]:2 0.007354
10 cfg\[83\]:2 e_in\[1\]:2 0.003620
11 cfg\[83\]:2 e_in\[3\]:2 0.002624
12 cfg\[83\]:2 e_out\[1\]:2 0.004477
13 cfg\[83\]:2 lut_in\[10\]:2 0.003620
14 cfg\[83\]:2 n_in\[0\]:2 0.009839
15 cfg\[83\]:2 n_in\[2\]:2 0.003620
16 cfg\[83\]:2 n_out\[0\]:2 0.002624
17 cfg\[83\]:2 n_out\[1\]:2 0.002624
18 cfg\[83\]:2 n_out\[2\]:2 0.003620
19 cfg\[83\]:2 s_in\[0\]:2 0.009864
20 cfg\[83\]:2 s_in\[1\]:2 0.008867
21 cfg\[83\]:2 s_in\[2\]:2 0.007563
22 cfg\[83\]:2 s_in\[3\]:2 0.005247
23 cfg\[83\]:2 s_out\[3\]:2 0.003620
24 cfg\[83\]:2 u_sm___008_:2 0.002624
25 cfg\[83\]:2 u_sm___012_:2 0.006244
26 cfg\[83\]:2 u_sm___015_:2 0.005068
27 cfg\[83\]:2 u_sm___018_:2 0.005247
28 cfg\[83\]:2 u_sm___019_:2 0.004217
29 cfg\[83\]:2 u_sm___022_:2 0.007563
30 cfg\[83\]:2 u_sm___023_:2 0.003620
31 cfg\[83\]:2 w_in\[0\]:2 0.003620
32 cfg\[83\]:2 w_in\[1\]:2 0.003620
33 cfg\[83\]:2 w_in\[3\]:2 0.002624
*RES
1 cfg[83] cfg\[83\]:2 184.782700
2 cfg[83] u_sm___090_:A1 0.000000
3 cfg[83] u_sm___089_:B 0.000000
4 cfg[83] u_sm___087_:S0 0.000000
*END

*D_NET cfg\[84\] 2.469944
*CONN
*P cfg\[84\] B
*I u_sm___091_:A1 B
*I u_sm___090_:C1 B
*CAP
1 cfg\[84\]:2 2.337760
2 cfg\[84\]:2 cfg\[85\]:2 0.007871
3 cfg\[84\]:2 cfg\[87\]:2 0.003620
4 cfg\[84\]:2 cfg\[88\]:2 0.006244
5 cfg\[84\]:2 cfg\[89\]:2 0.017109
6 cfg\[84\]:2 cfg\[8\]:2 0.003620
7 cfg\[84\]:2 cfg\[90\]:2 0.007240
8 cfg\[84\]:2 e_in\[0\]:2 0.002624
9 cfg\[84\]:2 n_out\[0\]:2 0.002624
10 cfg\[84\]:2 n_out\[1\]:2 0.002624
11 cfg\[84\]:2 n_out\[2\]:2 0.003620
12 cfg\[84\]:2 s_in\[0\]:2 0.005247
13 cfg\[84\]:2 s_in\[1\]:2 0.006244
14 cfg\[84\]:2 s_in\[2\]:2 0.007563
15 cfg\[84\]:2 s_out\[3\]:2 0.003620
16 cfg\[84\]:2 u_sm___012_:2 0.018987
17 cfg\[84\]:2 u_sm___015_:2 0.002624
18 cfg\[84\]:2 u_sm___016_:2 0.006061
19 cfg\[84\]:2 u_sm___018_:2 0.003620
20 cfg\[84\]:2 u_sm___019_:2 0.009839
21 cfg\[84\]:2 u_sm___022_:2 0.007563
22 cfg\[84\]:2 u_sm___023_:2 0.003620
*RES
1 cfg[84] cfg\[84\]:2 69.544000
2 cfg[84] u_sm___091_:A1 0.000000
3 cfg[84] u_sm___090_:C1 0.000000
*END

*D_NET cfg\[85\] 3.713547
*CONN
*P cfg\[85\] B
*I u_sm___090_:B2 B
*I u_sm___088_:S B
*I u_sm___087_:S1 B
*CAP
1 cfg\[85\]:2 3.558895
2 cfg\[85\]:2 cfg\[87\]:2 0.002624
3 cfg\[85\]:2 cfg\[88\]:2 0.003620
4 cfg\[85\]:2 cfg\[8\]:2 0.002624
5 cfg\[85\]:2 cfg\[90\]:2 0.009285
6 cfg\[85\]:2 e_in\[0\]:2 0.002624
7 cfg\[85\]:2 e_in\[1\]:2 0.006244
8 cfg\[85\]:2 e_in\[3\]:2 0.002624
9 cfg\[85\]:2 e_out\[1\]:2 0.008060
10 cfg\[85\]:2 lut_in\[10\]:2 0.003620
11 cfg\[85\]:2 n_in\[0\]:2 0.002624
12 cfg\[85\]:2 n_in\[2\]:2 0.005602
13 cfg\[85\]:2 n_out\[0\]:2 0.002624
14 cfg\[85\]:2 n_out\[1\]:2 0.002624
15 cfg\[85\]:2 n_out\[2\]:2 0.003620
16 cfg\[85\]:2 s_in\[0\]:2 0.014932
17 cfg\[85\]:2 s_in\[1\]:2 0.005247
18 cfg\[85\]:2 s_in\[3\]:2 0.002624
19 cfg\[85\]:2 s_out\[3\]:2 0.003620
20 cfg\[85\]:2 u_sm___012_:2 0.015434
21 cfg\[85\]:2 u_sm___015_:2 0.003620
22 cfg\[85\]:2 u_sm___018_:2 0.006323
23 cfg\[85\]:2 u_sm___019_:2 0.018206
24 cfg\[85\]:2 u_sm___023_:2 0.015367
25 cfg\[85\]:2 w_in\[0\]:2 0.003620
26 cfg\[85\]:2 w_in\[1\]:2 0.007240
*RES
1 cfg[85] cfg\[85\]:2 105.569200
2 cfg[85] u_sm___090_:B2 0.000000
3 cfg[85] u_sm___088_:S 0.000000
4 cfg[85] u_sm___087_:S1 0.000000
*END

*D_NET cfg\[86\] 3.249807
*CONN
*P cfg\[86\] B
*I u_sm___095_:A1 B
*I u_sm___094_:B B
*I u_sm___092_:S1 B
*CAP
1 cfg\[86\]:2 3.094728
2 cfg\[86\]:2 cfg\[87\]:2 0.005247
3 cfg\[86\]:2 cfg\[88\]:2 0.005247
4 cfg\[86\]:2 cfg\[89\]:2 0.022454
5 cfg\[86\]:2 cfg\[8\]:2 0.002624
6 cfg\[86\]:2 cfg\[90\]:2 0.008867
7 cfg\[86\]:2 cfg\[92\]:2 0.005247
8 cfg\[86\]:2 cfg\[96\]:2 0.000827
9 cfg\[86\]:2 e_in\[0\]:2 0.002624
10 cfg\[86\]:2 e_out\[0\]:2 0.002624
11 cfg\[86\]:2 e_out\[1\]:2 0.002624
12 cfg\[86\]:2 n_in\[0\]:2 0.004217
13 cfg\[86\]:2 n_in\[2\]:2 0.011183
14 cfg\[86\]:2 n_out\[0\]:2 0.002624
15 cfg\[86\]:2 n_out\[1\]:2 0.002624
16 cfg\[86\]:2 n_out\[2\]:2 0.003620
17 cfg\[86\]:2 s_in\[0\]:2 0.007563
18 cfg\[86\]:2 s_in\[1\]:2 0.015947
19 cfg\[86\]:2 s_in\[2\]:2 0.008205
20 cfg\[86\]:2 s_out\[3\]:2 0.008205
21 cfg\[86\]:2 u_sm___021_:2 0.006244
22 cfg\[86\]:2 u_sm___022_:2 0.007671
23 cfg\[86\]:2 u_sm___023_:2 0.002624
24 cfg\[86\]:2 u_sm___025_:2 0.001164
25 cfg\[86\]:2 u_sm___026_:2 0.003620
26 cfg\[86\]:2 w_in\[0\]:2 0.007563
27 cfg\[86\]:2 w_in\[1\]:2 0.003620
*RES
1 cfg[86] cfg\[86\]:2 94.458500
2 cfg[86] u_sm___095_:A1 0.000000
3 cfg[86] u_sm___094_:B 0.000000
4 cfg[86] u_sm___092_:S1 0.000000
*END

*D_NET cfg\[87\] 2.653140
*CONN
*P cfg\[87\] B
*I u_sm___096_:A1 B
*I u_sm___095_:C1 B
*CAP
1 cfg\[87\]:2 2.517127
2 cfg\[87\]:2 cfg\[88\]:2 0.007871
3 cfg\[87\]:2 cfg\[89\]:2 0.005247
4 cfg\[87\]:2 cfg\[8\]:2 0.002624
5 cfg\[87\]:2 cfg\[90\]:2 0.006244
6 cfg\[87\]:2 cfg\[91\]:2 0.002624
7 cfg\[87\]:2 cfg\[92\]:2 0.002624
8 cfg\[87\]:2 cfg\[95\]:2 0.002624
9 cfg\[87\]:2 cfg\[96\]:2 0.002624
10 cfg\[87\]:2 cfg\[97\]:2 0.002624
11 cfg\[87\]:2 cfg\[98\]:2 0.002624
12 cfg\[87\]:2 cfg\[99\]:2 0.002624
13 cfg\[87\]:2 e_in\[0\]:2 0.002624
14 cfg\[87\]:2 e_in\[1\]:2 0.003620
15 cfg\[87\]:2 e_in\[3\]:2 0.002624
16 cfg\[87\]:2 e_out\[0\]:2 0.002624
17 cfg\[87\]:2 e_out\[1\]:2 0.004310
18 cfg\[87\]:2 e_out\[2\]:2 0.004477
19 cfg\[87\]:2 n_out\[0\]:2 0.002624
20 cfg\[87\]:2 n_out\[1\]:2 0.002624
21 cfg\[87\]:2 n_out\[2\]:2 0.003620
22 cfg\[87\]:2 s_in\[0\]:2 0.003620
23 cfg\[87\]:2 s_in\[1\]:2 0.010315
24 cfg\[87\]:2 s_in\[2\]:2 0.003620
25 cfg\[87\]:2 s_out\[3\]:2 0.003620
26 cfg\[87\]:2 u_sm___019_:2 0.002624
27 cfg\[87\]:2 u_sm___020_:2 0.008713
28 cfg\[87\]:2 u_sm___022_:2 0.011115
29 cfg\[87\]:2 u_sm___023_:2 0.008711
30 cfg\[87\]:2 w_in\[0\]:2 0.003620
31 cfg\[87\]:2 w_in\[1\]:2 0.003620
32 cfg\[87\]:2 w_in\[3\]:2 0.006934
*RES
1 cfg[87] cfg\[87\]:2 76.976300
2 cfg[87] u_sm___096_:A1 0.000000
3 cfg[87] u_sm___095_:C1 0.000000
*END

*D_NET cfg\[88\] 4.500316
*CONN
*P cfg\[88\] B
*I u_sm___095_:B2 B
*I u_sm___093_:S B
*I u_sm___092_:S0 B
*CAP
1 cfg\[88\]:2 4.339814
2 cfg\[88\]:2 cfg\[89\]:2 0.008867
3 cfg\[88\]:2 cfg\[8\]:2 0.005247
4 cfg\[88\]:2 cfg\[90\]:2 0.013501
5 cfg\[88\]:2 cfg\[91\]:2 0.006244
6 cfg\[88\]:2 cfg\[95\]:2 0.002624
7 cfg\[88\]:2 cfg\[96\]:2 0.002624
8 cfg\[88\]:2 cfg\[97\]:2 0.002624
9 cfg\[88\]:2 cfg\[98\]:2 0.002624
10 cfg\[88\]:2 cfg\[99\]:2 0.007930
11 cfg\[88\]:2 e_in\[0\]:2 0.002624
12 cfg\[88\]:2 e_in\[1\]:2 0.003620
13 cfg\[88\]:2 e_in\[3\]:2 0.002624
14 cfg\[88\]:2 e_out\[0\]:2 0.002624
15 cfg\[88\]:2 lut_in\[10\]:2 0.003620
16 cfg\[88\]:2 n_in\[0\]:2 0.003620
17 cfg\[88\]:2 n_in\[2\]:2 0.003620
18 cfg\[88\]:2 n_out\[0\]:2 0.002624
19 cfg\[88\]:2 n_out\[1\]:2 0.002624
20 cfg\[88\]:2 n_out\[2\]:2 0.003620
21 cfg\[88\]:2 s_in\[0\]:2 0.003620
22 cfg\[88\]:2 s_in\[1\]:2 0.020425
23 cfg\[88\]:2 s_in\[3\]:2 0.004310
24 cfg\[88\]:2 s_out\[3\]:2 0.003620
25 cfg\[88\]:2 u_sm___012_:2 0.006934
26 cfg\[88\]:2 u_sm___016_:2 0.002624
27 cfg\[88\]:2 u_sm___018_:2 0.004819
28 cfg\[88\]:2 u_sm___021_:2 0.003620
29 cfg\[88\]:2 u_sm___022_:2 0.003186
30 cfg\[88\]:2 u_sm___023_:2 0.011351
31 cfg\[88\]:2 w_in\[0\]:2 0.003620
32 cfg\[88\]:2 w_in\[1\]:2 0.003620
33 cfg\[88\]:2 w_in\[2\]:2 0.002624
34 cfg\[88\]:2 w_in\[3\]:2 0.002624
*RES
1 cfg[88] cfg\[88\]:2 198.590500
2 cfg[88] u_sm___095_:B2 0.000000
3 cfg[88] u_sm___093_:S 0.000000
4 cfg[88] u_sm___092_:S0 0.000000
*END

*D_NET cfg\[89\] 3.569257
*CONN
*P cfg\[89\] B
*I u_sm___100_:A1 B
*I u_sm___099_:B B
*I u_sm___097_:S0 B
*CAP
1 cfg\[89\]:2 3.423120
2 cfg\[89\]:2 cfg\[8\]:2 0.002624
3 cfg\[89\]:2 cfg\[90\]:2 0.015600
4 cfg\[89\]:2 cfg\[91\]:2 0.002624
5 cfg\[89\]:2 cfg\[98\]:2 0.020708
6 cfg\[89\]:2 cfg\[99\]:2 0.002624
7 cfg\[89\]:2 e_in\[0\]:2 0.002624
8 cfg\[89\]:2 e_in\[1\]:2 0.002624
9 cfg\[89\]:2 e_in\[3\]:2 0.002624
10 cfg\[89\]:2 e_out\[0\]:2 0.002624
11 cfg\[89\]:2 e_out\[1\]:2 0.008060
12 cfg\[89\]:2 lut_in\[10\]:2 0.003137
13 cfg\[89\]:2 n_in\[0\]:2 0.010749
14 cfg\[89\]:2 n_in\[2\]:2 0.007240
15 cfg\[89\]:2 n_out\[0\]:2 0.002624
16 cfg\[89\]:2 n_out\[1\]:2 0.002624
17 cfg\[89\]:2 n_out\[2\]:2 0.005602
18 cfg\[89\]:2 s_in\[0\]:2 0.003620
19 cfg\[89\]:2 s_in\[1\]:2 0.012005
20 cfg\[89\]:2 s_out\[3\]:2 0.003620
21 cfg\[89\]:2 u_sm___018_:2 0.002624
22 cfg\[89\]:2 u_sm___021_:2 0.005247
23 cfg\[89\]:2 u_sm___023_:2 0.002624
24 cfg\[89\]:2 u_sm___027_:2 0.002624
25 cfg\[89\]:2 w_in\[0\]:2 0.005602
26 cfg\[89\]:2 w_in\[1\]:2 0.003620
27 cfg\[89\]:2 w_in\[3\]:2 0.009839
*RES
1 cfg[89] cfg\[89\]:2 188.437000
2 cfg[89] u_sm___100_:A1 0.000000
3 cfg[89] u_sm___099_:B 0.000000
4 cfg[89] u_sm___097_:S0 0.000000
*END

*D_NET cfg\[8\] 4.394800
*CONN
*P cfg\[8\] B
*I g_slice_0__u_slice___10_:A0 B
*CAP
1 cfg\[8\]:2 4.259954
2 cfg\[8\]:2 cfg\[9\]:2 0.004956
3 cfg\[8\]:2 e_in\[0\]:2 0.002624
4 cfg\[8\]:2 e_in\[1\]:2 0.003620
5 cfg\[8\]:2 e_in\[2\]:2 0.002624
6 cfg\[8\]:2 e_in\[3\]:2 0.002624
7 cfg\[8\]:2 e_out\[0\]:2 0.002624
8 cfg\[8\]:2 g_slice_0__u_slice___01_:2 0.002624
9 cfg\[8\]:2 g_slice_0__u_slice___02_:2 0.002718
10 cfg\[8\]:2 g_slice_0__u_slice___05_:2 0.002624
11 cfg\[8\]:2 g_slice_3__u_slice___05_:2 0.003620
12 cfg\[8\]:2 lut_in\[10\]:2 0.003620
13 cfg\[8\]:2 lut_in\[11\]:2 0.003620
14 cfg\[8\]:2 lut_in\[4\]:2 0.002624
15 cfg\[8\]:2 lut_in\[5\]:2 0.003620
16 cfg\[8\]:2 lut_in\[6\]:2 0.002624
17 cfg\[8\]:2 lut_in\[7\]:2 0.002624
18 cfg\[8\]:2 lut_in\[8\]:2 0.003620
19 cfg\[8\]:2 n_in\[0\]:2 0.002624
20 cfg\[8\]:2 n_in\[1\]:2 0.002624
21 cfg\[8\]:2 n_in\[2\]:2 0.003620
22 cfg\[8\]:2 n_in\[3\]:2 0.002624
23 cfg\[8\]:2 n_out\[0\]:2 0.002624
24 cfg\[8\]:2 n_out\[1\]:2 0.002624
25 cfg\[8\]:2 n_out\[2\]:2 0.003620
26 cfg\[8\]:2 n_out\[3\]:2 0.003620
27 cfg\[8\]:2 s_in\[0\]:2 0.003620
28 cfg\[8\]:2 s_in\[1\]:2 0.006244
29 cfg\[8\]:2 s_in\[2\]:2 0.003620
30 cfg\[8\]:2 s_in\[3\]:2 0.002624
31 cfg\[8\]:2 s_out\[3\]:2 0.003620
32 cfg\[8\]:2 u_sm___017_:2 0.004310
33 cfg\[8\]:2 u_sm___019_:2 0.009839
34 cfg\[8\]:2 u_sm___023_:2 0.005247
35 cfg\[8\]:2 w_in\[0\]:2 0.006244
36 cfg\[8\]:2 w_in\[1\]:2 0.003620
37 cfg\[8\]:2 w_in\[2\]:2 0.006244
38 cfg\[8\]:2 w_in\[3\]:2 0.002624
*RES
1 cfg[8] cfg\[8\]:2 95.914000
2 cfg[8] g_slice_0__u_slice___10_:A0 0.000000
*END

*D_NET cfg\[90\] 3.248318
*CONN
*P cfg\[90\] B
*I u_sm___101_:A1 B
*I u_sm___100_:C1 B
*CAP
1 cfg\[90\]:2 3.124550
2 cfg\[90\]:2 cfg\[91\]:2 0.003620
3 cfg\[90\]:2 cfg\[95\]:2 0.006323
4 cfg\[90\]:2 cfg\[96\]:2 0.003620
5 cfg\[90\]:2 cfg\[97\]:2 0.003620
6 cfg\[90\]:2 cfg\[98\]:2 0.003620
7 cfg\[90\]:2 cfg\[99\]:2 0.003620
8 cfg\[90\]:2 e_in\[0\]:2 0.002624
9 cfg\[90\]:2 e_in\[1\]:2 0.003620
10 cfg\[90\]:2 e_in\[3\]:2 0.002624
11 cfg\[90\]:2 e_out\[0\]:2 0.002624
12 cfg\[90\]:2 n_in\[2\]:2 0.008688
13 cfg\[90\]:2 n_out\[0\]:2 0.002624
14 cfg\[90\]:2 n_out\[1\]:2 0.002624
15 cfg\[90\]:2 n_out\[2\]:2 0.005602
16 cfg\[90\]:2 s_in\[0\]:2 0.003620
17 cfg\[90\]:2 s_in\[1\]:2 0.003620
18 cfg\[90\]:2 s_in\[2\]:2 0.003620
19 cfg\[90\]:2 s_out\[3\]:2 0.003620
20 cfg\[90\]:2 u_sm___016_:2 0.002624
21 cfg\[90\]:2 u_sm___017_:2 0.006934
22 cfg\[90\]:2 u_sm___019_:2 0.002624
23 cfg\[90\]:2 u_sm___021_:2 0.006075
24 cfg\[90\]:2 u_sm___022_:2 0.007563
25 cfg\[90\]:2 u_sm___023_:2 0.009299
26 cfg\[90\]:2 u_sm___024_:2 0.003137
27 cfg\[90\]:2 u_sm___027_:2 0.005715
28 cfg\[90\]:2 w_in\[0\]:2 0.003620
29 cfg\[90\]:2 w_in\[1\]:2 0.003620
30 cfg\[90\]:2 w_in\[3\]:2 0.002624
*RES
1 cfg[90] cfg\[90\]:2 75.501100
2 cfg[90] u_sm___101_:A1 0.000000
3 cfg[90] u_sm___100_:C1 0.000000
*END

*D_NET cfg\[91\] 2.740442
*CONN
*P cfg\[91\] B
*I u_sm___100_:B2 B
*I u_sm___098_:S B
*I u_sm___097_:S1 B
*CAP
1 cfg\[91\]:2 2.610790
2 cfg\[91\]:2 cfg\[92\]:2 0.005247
3 cfg\[91\]:2 cfg\[93\]:2 0.005247
4 cfg\[91\]:2 cfg\[95\]:2 0.013868
5 cfg\[91\]:2 cfg\[96\]:2 0.013227
6 cfg\[91\]:2 cfg\[97\]:2 0.010603
7 cfg\[91\]:2 e_in\[0\]:2 0.002624
8 cfg\[91\]:2 e_in\[1\]:2 0.002624
9 cfg\[91\]:2 e_in\[3\]:2 0.002624
10 cfg\[91\]:2 e_out\[0\]:2 0.002624
11 cfg\[91\]:2 e_out\[1\]:2 0.002624
12 cfg\[91\]:2 e_out\[2\]:2 0.002624
13 cfg\[91\]:2 lut_in\[10\]:2 0.003137
14 cfg\[91\]:2 n_in\[0\]:2 0.002624
15 cfg\[91\]:2 n_in\[2\]:2 0.003620
16 cfg\[91\]:2 n_out\[0\]:2 0.002624
17 cfg\[91\]:2 n_out\[1\]:2 0.002624
18 cfg\[91\]:2 n_out\[2\]:2 0.003620
19 cfg\[91\]:2 s_in\[0\]:2 0.003620
20 cfg\[91\]:2 s_in\[1\]:2 0.005068
21 cfg\[91\]:2 s_in\[2\]:2 0.003620
22 cfg\[91\]:2 s_out\[3\]:2 0.003620
23 cfg\[91\]:2 u_sm___023_:2 0.004310
24 cfg\[91\]:2 u_sm___025_:2 0.008196
25 cfg\[91\]:2 u_sm___027_:2 0.008621
26 cfg\[91\]:2 w_in\[0\]:2 0.006792
27 cfg\[91\]:2 w_in\[1\]:2 0.003620
*RES
1 cfg[91] cfg\[91\]:2 101.514900
2 cfg[91] u_sm___100_:B2 0.000000
3 cfg[91] u_sm___098_:S 0.000000
4 cfg[91] u_sm___097_:S1 0.000000
*END

*D_NET cfg\[92\] 4.028015
*CONN
*P cfg\[92\] B
*I u_sm___105_:A1 B
*I u_sm___104_:B B
*I u_sm___102_:S0 B
*CAP
1 cfg\[92\]:2 3.848487
2 cfg\[92\]:2 cfg\[93\]:2 0.002624
3 cfg\[92\]:2 cfg\[94\]:2 0.005247
4 cfg\[92\]:2 cfg\[95\]:2 0.007795
5 cfg\[92\]:2 cfg\[96\]:2 0.002624
6 cfg\[92\]:2 cfg\[97\]:2 0.002624
7 cfg\[92\]:2 cfg\[98\]:2 0.002624
8 cfg\[92\]:2 cfg\[99\]:2 0.002624
9 cfg\[92\]:2 cfg\[9\]:2 0.002624
10 cfg\[92\]:2 clk:2 0.002624
11 cfg\[92\]:2 e_in\[0\]:2 0.005247
12 cfg\[92\]:2 e_in\[1\]:2 0.002624
13 cfg\[92\]:2 e_in\[2\]:2 0.005247
14 cfg\[92\]:2 e_in\[3\]:2 0.002624
15 cfg\[92\]:2 e_out\[0\]:2 0.002624
16 cfg\[92\]:2 e_out\[1\]:2 0.002624
17 cfg\[92\]:2 e_out\[2\]:2 0.004477
18 cfg\[92\]:2 e_out\[3\]:2 0.002624
19 cfg\[92\]:2 n_in\[1\]:2 0.005247
20 cfg\[92\]:2 n_in\[2\]:2 0.002624
21 cfg\[92\]:2 n_in\[3\]:2 0.022454
22 cfg\[92\]:2 n_out\[0\]:2 0.002624
23 cfg\[92\]:2 n_out\[1\]:2 0.002624
24 cfg\[92\]:2 n_out\[2\]:2 0.003620
25 cfg\[92\]:2 s_in\[2\]:2 0.010136
26 cfg\[92\]:2 s_out\[1\]:2 0.002624
27 cfg\[92\]:2 s_out\[3\]:2 0.003620
28 cfg\[92\]:2 u_sm___020_:2 0.006061
29 cfg\[92\]:2 u_sm___022_:2 0.007900
30 cfg\[92\]:2 u_sm___023_:2 0.002624
31 cfg\[92\]:2 u_sm___028_:2 0.000557
32 cfg\[92\]:2 u_sm___029_:2 0.007668
33 cfg\[92\]:2 u_sm___030_:2 0.011982
34 cfg\[92\]:2 u_sm___031_:2 0.024607
35 cfg\[92\]:2 w_in\[0\]:2 0.003055
*RES
1 cfg[92] cfg\[92\]:2 191.904700
2 cfg[92] u_sm___105_:A1 0.000000
3 cfg[92] u_sm___104_:B 0.000000
4 cfg[92] u_sm___102_:S0 0.000000
*END

*D_NET cfg\[93\] 3.167512
*CONN
*P cfg\[93\] B
*I u_sm___106_:A1 B
*I u_sm___105_:C1 B
*CAP
1 cfg\[93\]:2 3.005855
2 cfg\[93\]:2 cfg\[94\]:2 0.010401
3 cfg\[93\]:2 cfg\[95\]:2 0.002624
4 cfg\[93\]:2 cfg\[96\]:2 0.002624
5 cfg\[93\]:2 cfg\[97\]:2 0.002624
6 cfg\[93\]:2 cfg\[98\]:2 0.002624
7 cfg\[93\]:2 cfg\[99\]:2 0.002624
8 cfg\[93\]:2 cfg\[9\]:2 0.002624
9 cfg\[93\]:2 clk:2 0.002624
10 cfg\[93\]:2 e_in\[0\]:2 0.041416
11 cfg\[93\]:2 e_in\[1\]:2 0.002624
12 cfg\[93\]:2 e_in\[2\]:2 0.002624
13 cfg\[93\]:2 e_in\[3\]:2 0.002624
14 cfg\[93\]:2 e_out\[0\]:2 0.002624
15 cfg\[93\]:2 e_out\[1\]:2 0.002624
16 cfg\[93\]:2 e_out\[2\]:2 0.005436
17 cfg\[93\]:2 e_out\[3\]:2 0.002624
18 cfg\[93\]:2 n_in\[1\]:2 0.002624
19 cfg\[93\]:2 n_in\[2\]:2 0.002624
20 cfg\[93\]:2 n_in\[3\]:2 0.002624
21 cfg\[93\]:2 n_out\[0\]:2 0.002624
22 cfg\[93\]:2 n_out\[1\]:2 0.002624
23 cfg\[93\]:2 n_out\[2\]:2 0.003620
24 cfg\[93\]:2 n_out\[3\]:2 0.002624
25 cfg\[93\]:2 s_in\[0\]:2 0.006443
26 cfg\[93\]:2 s_in\[2\]:2 0.003620
27 cfg\[93\]:2 s_out\[0\]:2 0.012624
28 cfg\[93\]:2 s_out\[1\]:2 0.002624
29 cfg\[93\]:2 s_out\[3\]:2 0.008205
30 cfg\[93\]:2 u_sm___028_:2 0.003437
31 cfg\[93\]:2 u_sm___031_:2 0.011351
32 cfg\[93\]:2 w_in\[0\]:2 0.002624
*RES
1 cfg[93] cfg\[93\]:2 81.881700
2 cfg[93] u_sm___106_:A1 0.000000
3 cfg[93] u_sm___105_:C1 0.000000
*END

*D_NET cfg\[94\] 3.228129
*CONN
*P cfg\[94\] B
*I u_sm___105_:B2 B
*I u_sm___103_:S B
*I u_sm___102_:S1 B
*CAP
1 cfg\[94\]:2 3.084386
2 cfg\[94\]:2 cfg\[95\]:2 0.002624
3 cfg\[94\]:2 cfg\[96\]:2 0.005247
4 cfg\[94\]:2 cfg\[97\]:2 0.002624
5 cfg\[94\]:2 cfg\[98\]:2 0.002624
6 cfg\[94\]:2 cfg\[99\]:2 0.002624
7 cfg\[94\]:2 cfg\[9\]:2 0.002624
8 cfg\[94\]:2 clk:2 0.019865
9 cfg\[94\]:2 e_in\[0\]:2 0.002624
10 cfg\[94\]:2 e_in\[1\]:2 0.002624
11 cfg\[94\]:2 e_in\[2\]:2 0.009558
12 cfg\[94\]:2 e_in\[3\]:2 0.002624
13 cfg\[94\]:2 e_out\[0\]:2 0.002624
14 cfg\[94\]:2 e_out\[1\]:2 0.002624
15 cfg\[94\]:2 e_out\[2\]:2 0.002624
16 cfg\[94\]:2 e_out\[3\]:2 0.002624
17 cfg\[94\]:2 n_in\[0\]:2 0.009864
18 cfg\[94\]:2 n_in\[1\]:2 0.005247
19 cfg\[94\]:2 n_in\[2\]:2 0.003620
20 cfg\[94\]:2 n_in\[3\]:2 0.003620
21 cfg\[94\]:2 n_out\[0\]:2 0.002624
22 cfg\[94\]:2 n_out\[1\]:2 0.002624
23 cfg\[94\]:2 n_out\[2\]:2 0.003620
24 cfg\[94\]:2 s_in\[0\]:2 0.003620
25 cfg\[94\]:2 s_in\[2\]:2 0.003620
26 cfg\[94\]:2 s_out\[1\]:2 0.002624
27 cfg\[94\]:2 s_out\[3\]:2 0.011843
28 cfg\[94\]:2 u_sm___029_:2 0.002624
29 cfg\[94\]:2 u_sm___030_:2 0.005435
30 cfg\[94\]:2 u_sm___031_:2 0.004310
31 cfg\[94\]:2 u_sm___032_:2 0.004310
32 cfg\[94\]:2 u_sm___035_:2 0.002624
33 cfg\[94\]:2 w_in\[0\]:2 0.005356
*RES
1 cfg[94] cfg\[94\]:2 106.163900
2 cfg[94] u_sm___105_:B2 0.000000
3 cfg[94] u_sm___103_:S 0.000000
4 cfg[94] u_sm___102_:S1 0.000000
*END

*D_NET cfg\[95\] 4.475365
*CONN
*P cfg\[95\] B
*I u_sm___110_:A1 B
*I u_sm___109_:B B
*I u_sm___107_:S0 B
*CAP
1 cfg\[95\]:2 4.290824
2 cfg\[95\]:2 cfg\[96\]:2 0.002624
3 cfg\[95\]:2 cfg\[97\]:2 0.009558
4 cfg\[95\]:2 cfg\[98\]:2 0.002624
5 cfg\[95\]:2 cfg\[99\]:2 0.002624
6 cfg\[95\]:2 cfg\[9\]:2 0.002624
7 cfg\[95\]:2 clk:2 0.002624
8 cfg\[95\]:2 e_in\[0\]:2 0.002624
9 cfg\[95\]:2 e_in\[1\]:2 0.005247
10 cfg\[95\]:2 e_in\[2\]:2 0.003620
11 cfg\[95\]:2 e_in\[3\]:2 0.002624
12 cfg\[95\]:2 e_out\[0\]:2 0.002624
13 cfg\[95\]:2 e_out\[1\]:2 0.002624
14 cfg\[95\]:2 e_out\[3\]:2 0.005436
15 cfg\[95\]:2 n_in\[0\]:2 0.024705
16 cfg\[95\]:2 n_in\[1\]:2 0.005247
17 cfg\[95\]:2 n_in\[2\]:2 0.010554
18 cfg\[95\]:2 n_in\[3\]:2 0.002624
19 cfg\[95\]:2 n_out\[0\]:2 0.002624
20 cfg\[95\]:2 n_out\[1\]:2 0.002624
21 cfg\[95\]:2 n_out\[2\]:2 0.003620
22 cfg\[95\]:2 s_in\[0\]:2 0.024705
23 cfg\[95\]:2 s_in\[1\]:2 0.006792
24 cfg\[95\]:2 s_in\[2\]:2 0.008867
25 cfg\[95\]:2 s_in\[3\]:2 0.003620
26 cfg\[95\]:2 s_out\[3\]:2 0.003620
27 cfg\[95\]:2 u_sm___023_:2 0.002624
28 cfg\[95\]:2 u_sm___026_:2 0.011891
29 cfg\[95\]:2 u_sm___034_:2 0.005068
30 cfg\[95\]:2 w_in\[0\]:2 0.012631
31 cfg\[95\]:2 w_in\[1\]:2 0.002624
32 cfg\[95\]:2 w_in\[2\]:2 0.002624
*RES
1 cfg[95] cfg\[95\]:2 190.716700
2 cfg[95] u_sm___110_:A1 0.000000
3 cfg[95] u_sm___109_:B 0.000000
4 cfg[95] u_sm___107_:S0 0.000000
*END

*D_NET cfg\[96\] 3.550993
*CONN
*P cfg\[96\] B
*I u_sm___111_:A1 B
*I u_sm___110_:C1 B
*CAP
1 cfg\[96\]:2 3.389732
2 cfg\[96\]:2 cfg\[97\]:2 0.002624
3 cfg\[96\]:2 cfg\[98\]:2 0.005247
4 cfg\[96\]:2 cfg\[99\]:2 0.005247
5 cfg\[96\]:2 cfg\[9\]:2 0.005247
6 cfg\[96\]:2 clk:2 0.005247
7 cfg\[96\]:2 e_in\[0\]:2 0.002624
8 cfg\[96\]:2 e_in\[1\]:2 0.007871
9 cfg\[96\]:2 e_in\[2\]:2 0.003055
10 cfg\[96\]:2 e_in\[3\]:2 0.005247
11 cfg\[96\]:2 e_out\[0\]:2 0.002624
12 cfg\[96\]:2 e_out\[1\]:2 0.005247
13 cfg\[96\]:2 e_out\[3\]:2 0.004477
14 cfg\[96\]:2 n_in\[0\]:2 0.006840
15 cfg\[96\]:2 n_in\[1\]:2 0.002624
16 cfg\[96\]:2 n_in\[2\]:2 0.005247
17 cfg\[96\]:2 n_in\[3\]:2 0.005247
18 cfg\[96\]:2 n_out\[0\]:2 0.002624
19 cfg\[96\]:2 n_out\[1\]:2 0.002624
20 cfg\[96\]:2 n_out\[2\]:2 0.003620
21 cfg\[96\]:2 s_in\[0\]:2 0.005068
22 cfg\[96\]:2 s_in\[2\]:2 0.016105
23 cfg\[96\]:2 s_out\[1\]:2 0.004477
24 cfg\[96\]:2 s_out\[3\]:2 0.003620
25 cfg\[96\]:2 u_sm___023_:2 0.002624
26 cfg\[96\]:2 u_sm___024_:2 0.008685
27 cfg\[96\]:2 u_sm___027_:2 0.005247
28 cfg\[96\]:2 u_sm___029_:2 0.002624
29 cfg\[96\]:2 u_sm___030_:2 0.005276
30 cfg\[96\]:2 u_sm___032_:2 0.003437
31 cfg\[96\]:2 u_sm___034_:2 0.007900
32 cfg\[96\]:2 u_sm___035_:2 0.008995
33 cfg\[96\]:2 w_in\[1\]:2 0.003620
*RES
1 cfg[96] cfg\[96\]:2 86.472300
2 cfg[96] u_sm___111_:A1 0.000000
3 cfg[96] u_sm___110_:C1 0.000000
*END

*D_NET cfg\[97\] 3.379902
*CONN
*P cfg\[97\] B
*I u_sm___110_:B2 B
*I u_sm___108_:S B
*I u_sm___107_:S1 B
*CAP
1 cfg\[97\]:2 3.244777
2 cfg\[97\]:2 cfg\[98\]:2 0.002624
3 cfg\[97\]:2 cfg\[99\]:2 0.002624
4 cfg\[97\]:2 cfg\[9\]:2 0.002624
5 cfg\[97\]:2 clk:2 0.002624
6 cfg\[97\]:2 e_in\[0\]:2 0.002624
7 cfg\[97\]:2 e_in\[1\]:2 0.007871
8 cfg\[97\]:2 e_in\[2\]:2 0.003620
9 cfg\[97\]:2 e_in\[3\]:2 0.002624
10 cfg\[97\]:2 e_out\[0\]:2 0.002624
11 cfg\[97\]:2 e_out\[1\]:2 0.002624
12 cfg\[97\]:2 e_out\[2\]:2 0.002624
13 cfg\[97\]:2 n_in\[0\]:2 0.002624
14 cfg\[97\]:2 n_in\[1\]:2 0.002624
15 cfg\[97\]:2 n_in\[2\]:2 0.006244
16 cfg\[97\]:2 n_in\[3\]:2 0.002624
17 cfg\[97\]:2 n_out\[0\]:2 0.002624
18 cfg\[97\]:2 n_out\[1\]:2 0.002624
19 cfg\[97\]:2 n_out\[2\]:2 0.003620
20 cfg\[97\]:2 s_in\[0\]:2 0.005068
21 cfg\[97\]:2 s_in\[1\]:2 0.003620
22 cfg\[97\]:2 s_in\[2\]:2 0.010554
23 cfg\[97\]:2 s_in\[3\]:2 0.003620
24 cfg\[97\]:2 s_out\[3\]:2 0.003620
25 cfg\[97\]:2 u_sm___023_:2 0.002624
26 cfg\[97\]:2 u_sm___024_:2 0.002624
27 cfg\[97\]:2 u_sm___027_:2 0.002624
28 cfg\[97\]:2 u_sm___029_:2 0.003038
29 cfg\[97\]:2 u_sm___033_:2 0.002624
30 cfg\[97\]:2 u_sm___035_:2 0.019657
31 cfg\[97\]:2 w_in\[0\]:2 0.003137
32 cfg\[97\]:2 w_in\[1\]:2 0.011600
33 cfg\[97\]:2 w_in\[2\]:2 0.002624
*RES
1 cfg[97] cfg\[97\]:2 108.799900
2 cfg[97] u_sm___110_:B2 0.000000
3 cfg[97] u_sm___108_:S 0.000000
4 cfg[97] u_sm___107_:S1 0.000000
*END

*D_NET cfg\[98\] 4.130107
*CONN
*P cfg\[98\] B
*I u_sm___115_:A1 B
*I u_sm___114_:B B
*I u_sm___112_:S1 B
*CAP
1 cfg\[98\]:2 3.970869
2 cfg\[98\]:2 cfg\[99\]:2 0.008688
3 cfg\[98\]:2 cfg\[9\]:2 0.011619
4 cfg\[98\]:2 e_in\[0\]:2 0.002624
5 cfg\[98\]:2 e_in\[1\]:2 0.002624
6 cfg\[98\]:2 e_in\[2\]:2 0.002624
7 cfg\[98\]:2 e_in\[3\]:2 0.002624
8 cfg\[98\]:2 e_out\[0\]:2 0.002624
9 cfg\[98\]:2 e_out\[1\]:2 0.002624
10 cfg\[98\]:2 e_out\[2\]:2 0.002624
11 cfg\[98\]:2 e_out\[3\]:2 0.003620
12 cfg\[98\]:2 g_slice_3__u_slice___06_:2 0.005276
13 cfg\[98\]:2 g_slice_3__u_slice__ff_q:2 0.004310
14 cfg\[98\]:2 lut_in\[10\]:2 0.003620
15 cfg\[98\]:2 lut_in\[4\]:2 0.002624
16 cfg\[98\]:2 lut_in\[5\]:2 0.002624
17 cfg\[98\]:2 lut_in\[6\]:2 0.007260
18 cfg\[98\]:2 lut_in\[7\]:2 0.002624
19 cfg\[98\]:2 lut_in\[8\]:2 0.003620
20 cfg\[98\]:2 n_in\[0\]:2 0.003620
21 cfg\[98\]:2 n_in\[1\]:2 0.002624
22 cfg\[98\]:2 n_in\[2\]:2 0.003620
23 cfg\[98\]:2 n_in\[3\]:2 0.002624
24 cfg\[98\]:2 n_out\[0\]:2 0.002624
25 cfg\[98\]:2 n_out\[1\]:2 0.002624
26 cfg\[98\]:2 n_out\[2\]:2 0.003620
27 cfg\[98\]:2 n_out\[3\]:2 0.003620
28 cfg\[98\]:2 s_in\[0\]:2 0.003620
29 cfg\[98\]:2 s_in\[1\]:2 0.003620
30 cfg\[98\]:2 s_in\[2\]:2 0.003620
31 cfg\[98\]:2 s_in\[3\]:2 0.003620
32 cfg\[98\]:2 s_out\[3\]:2 0.003620
33 cfg\[98\]:2 u_sm___024_:2 0.007930
34 cfg\[98\]:2 u_sm___027_:2 0.006244
35 cfg\[98\]:2 u_sm___037_:2 0.004310
36 cfg\[98\]:2 u_sm___038_:2 0.008314
37 cfg\[98\]:2 u_sm___039_:2 0.002624
38 cfg\[98\]:2 w_in\[0\]:2 0.003620
39 cfg\[98\]:2 w_in\[1\]:2 0.003620
40 cfg\[98\]:2 w_in\[2\]:2 0.005247
*RES
1 cfg[98] cfg\[98\]:2 110.711100
2 cfg[98] u_sm___115_:A1 0.000000
3 cfg[98] u_sm___114_:B 0.000000
4 cfg[98] u_sm___112_:S1 0.000000
*END

*D_NET cfg\[99\] 4.299119
*CONN
*P cfg\[99\] B
*I u_sm___116_:A1 B
*I u_sm___115_:C1 B
*CAP
1 cfg\[99\]:2 4.102039
2 cfg\[99\]:2 cfg\[9\]:2 0.003620
3 cfg\[99\]:2 clk:2 0.003620
4 cfg\[99\]:2 clknet_1_0__leaf_clk:2 0.007930
5 cfg\[99\]:2 e_in\[0\]:2 0.002624
6 cfg\[99\]:2 e_in\[1\]:2 0.002624
7 cfg\[99\]:2 e_in\[2\]:2 0.002624
8 cfg\[99\]:2 e_in\[3\]:2 0.019865
9 cfg\[99\]:2 e_out\[0\]:2 0.002624
10 cfg\[99\]:2 e_out\[1\]:2 0.002624
11 cfg\[99\]:2 e_out\[2\]:2 0.002624
12 cfg\[99\]:2 e_out\[3\]:2 0.003620
13 cfg\[99\]:2 g_slice_3__u_slice___05_:2 0.002367
14 cfg\[99\]:2 g_slice_3__u_slice___06_:2 0.002624
15 cfg\[99\]:2 g_slice_3__u_slice___07_:2 0.004310
16 cfg\[99\]:2 g_slice_3__u_slice___08_:2 0.002624
17 cfg\[99\]:2 lut_in\[10\]:2 0.011183
18 cfg\[99\]:2 lut_in\[11\]:2 0.007240
19 cfg\[99\]:2 lut_in\[4\]:2 0.002624
20 cfg\[99\]:2 lut_in\[5\]:2 0.003620
21 cfg\[99\]:2 lut_in\[6\]:2 0.002624
22 cfg\[99\]:2 lut_in\[7\]:2 0.002624
23 cfg\[99\]:2 lut_in\[8\]:2 0.003620
24 cfg\[99\]:2 n_in\[0\]:2 0.002624
25 cfg\[99\]:2 n_in\[1\]:2 0.002624
26 cfg\[99\]:2 n_in\[2\]:2 0.003620
27 cfg\[99\]:2 n_in\[3\]:2 0.002624
28 cfg\[99\]:2 n_out\[0\]:2 0.002624
29 cfg\[99\]:2 n_out\[1\]:2 0.002624
30 cfg\[99\]:2 n_out\[2\]:2 0.005602
31 cfg\[99\]:2 n_out\[3\]:2 0.003620
32 cfg\[99\]:2 s_in\[0\]:2 0.003620
33 cfg\[99\]:2 s_in\[1\]:2 0.003620
34 cfg\[99\]:2 s_in\[2\]:2 0.003620
35 cfg\[99\]:2 s_in\[3\]:2 0.002624
36 cfg\[99\]:2 s_out\[2\]:2 0.004217
37 cfg\[99\]:2 s_out\[3\]:2 0.003620
38 cfg\[99\]:2 u_sm___020_:2 0.004310
39 cfg\[99\]:2 u_sm___025_:2 0.004310
40 cfg\[99\]:2 u_sm___027_:2 0.008867
41 cfg\[99\]:2 u_sm___038_:2 0.003137
42 cfg\[99\]:2 u_sm___039_:2 0.007900
43 cfg\[99\]:2 w_in\[0\]:2 0.003620
44 cfg\[99\]:2 w_in\[1\]:2 0.003620
45 cfg\[99\]:2 w_in\[2\]:2 0.009864
46 cfg\[99\]:2 w_in\[3\]:2 0.004310
*RES
1 cfg[99] cfg\[99\]:2 90.168900
2 cfg[99] u_sm___116_:A1 0.000000
3 cfg[99] u_sm___115_:C1 0.000000
*END

*D_NET cfg\[9\] 5.422446
*CONN
*P cfg\[9\] B
*I g_slice_0__u_slice___10_:A1 B
*CAP
1 cfg\[9\]:2 5.268642
2 cfg\[9\]:2 clknet_0_clk:2 0.002624
3 cfg\[9\]:2 clknet_1_0__leaf_clk:2 0.002624
4 cfg\[9\]:2 e_in\[0\]:2 0.002624
5 cfg\[9\]:2 e_in\[1\]:2 0.002624
6 cfg\[9\]:2 e_in\[2\]:2 0.002624
7 cfg\[9\]:2 e_in\[3\]:2 0.002624
8 cfg\[9\]:2 e_out\[0\]:2 0.002624
9 cfg\[9\]:2 e_out\[1\]:2 0.002624
10 cfg\[9\]:2 e_out\[2\]:2 0.002624
11 cfg\[9\]:2 e_out\[3\]:2 0.003620
12 cfg\[9\]:2 g_slice_0__u_slice___01_:2 0.002624
13 cfg\[9\]:2 g_slice_0__u_slice___02_:2 0.002718
14 cfg\[9\]:2 g_slice_0__u_slice___05_:2 0.002624
15 cfg\[9\]:2 lut_in\[0\]:2 0.000582
16 cfg\[9\]:2 lut_in\[11\]:2 0.003620
17 cfg\[9\]:2 lut_in\[4\]:2 0.008995
18 cfg\[9\]:2 lut_in\[5\]:2 0.002624
19 cfg\[9\]:2 lut_in\[6\]:2 0.002624
20 cfg\[9\]:2 lut_in\[7\]:2 0.002624
21 cfg\[9\]:2 lut_in\[8\]:2 0.003620
22 cfg\[9\]:2 n_in\[0\]:2 0.003620
23 cfg\[9\]:2 n_in\[1\]:2 0.002624
24 cfg\[9\]:2 n_in\[2\]:2 0.006244
25 cfg\[9\]:2 n_in\[3\]:2 0.005247
26 cfg\[9\]:2 n_out\[0\]:2 0.002624
27 cfg\[9\]:2 n_out\[1\]:2 0.002624
28 cfg\[9\]:2 n_out\[2\]:2 0.003620
29 cfg\[9\]:2 n_out\[3\]:2 0.003620
30 cfg\[9\]:2 s_in\[0\]:2 0.003620
31 cfg\[9\]:2 s_in\[1\]:2 0.003620
32 cfg\[9\]:2 s_in\[2\]:2 0.003620
33 cfg\[9\]:2 s_in\[3\]:2 0.003620
34 cfg\[9\]:2 s_out\[3\]:2 0.003620
35 cfg\[9\]:2 u_sm___024_:2 0.003620
36 cfg\[9\]:2 u_sm___027_:2 0.018987
37 cfg\[9\]:2 u_sm___037_:2 0.002624
38 cfg\[9\]:2 u_sm___038_:2 0.002624
39 cfg\[9\]:2 u_sm___039_:2 0.002624
40 cfg\[9\]:2 w_in\[0\]:2 0.006244
41 cfg\[9\]:2 w_in\[1\]:2 0.003620
42 cfg\[9\]:2 w_in\[2\]:2 0.005247
*RES
1 cfg[9] cfg\[9\]:2 81.077200
2 cfg[9] g_slice_0__u_slice___10_:A1 0.000000
*END

*D_NET clk 3.856113
*CONN
*P clk B
*I clkbuf_0_clk:A B
*CAP
1 clk:2 3.715877
2 clk:2 clknet_0_clk:2 0.021335
3 clk:2 clknet_1_0__leaf_clk:2 0.002624
4 clk:2 e_in\[0\]:2 0.002624
5 clk:2 e_in\[1\]:2 0.002624
6 clk:2 e_in\[2\]:2 0.002624
7 clk:2 e_in\[3\]:2 0.002624
8 clk:2 e_out\[0\]:2 0.002624
9 clk:2 e_out\[1\]:2 0.002624
10 clk:2 e_out\[2\]:2 0.002624
11 clk:2 e_out\[3\]:2 0.003620
12 clk:2 g_slice_0__u_slice___05_:2 0.002624
13 clk:2 lut_in\[11\]:2 0.003620
14 clk:2 lut_in\[4\]:2 0.002624
15 clk:2 lut_in\[5\]:2 0.002624
16 clk:2 lut_in\[6\]:2 0.002624
17 clk:2 lut_in\[7\]:2 0.002624
18 clk:2 lut_in\[8\]:2 0.003620
19 clk:2 n_in\[0\]:2 0.003620
20 clk:2 n_in\[1\]:2 0.002624
21 clk:2 n_in\[2\]:2 0.006244
22 clk:2 n_in\[3\]:2 0.002624
23 clk:2 n_out\[0\]:2 0.002624
24 clk:2 n_out\[1\]:2 0.002624
25 clk:2 n_out\[2\]:2 0.003620
26 clk:2 n_out\[3\]:2 0.003620
27 clk:2 s_in\[0\]:2 0.003620
28 clk:2 s_in\[1\]:2 0.003620
29 clk:2 s_in\[2\]:2 0.003620
30 clk:2 s_in\[3\]:2 0.003620
31 clk:2 s_out\[2\]:2 0.002624
32 clk:2 s_out\[3\]:2 0.003620
33 clk:2 u_sm___030_:2 0.005247
34 clk:2 u_sm___038_:2 0.005247
35 clk:2 u_sm___039_:2 0.005247
36 clk:2 w_in\[0\]:2 0.003620
37 clk:2 w_in\[1\]:2 0.003620
38 clk:2 w_in\[2\]:2 0.002624
*RES
1 clk clk:2 62.020800
2 clk clkbuf_0_clk:A 0.000000
*END

*D_NET clknet_0_clk 2.726807
*CONN
*I clkbuf_1_1__f_clk:A B
*I clkbuf_1_0__f_clk:A B
*I clkbuf_0_clk:X B
*CAP
1 clknet_0_clk:2 2.711653
2 clknet_0_clk:2 clknet_1_0__leaf_clk:2 0.007914
3 clknet_0_clk:2 lut_in\[10\]:2 0.003620
4 clknet_0_clk:2 lut_in\[9\]:2 0.003620
*RES
1 clknet_0_clk:1 clknet_0_clk:2 345.363300
2 clknet_0_clk:1 clkbuf_1_1__f_clk:A 0.000000
3 clknet_0_clk:1 clkbuf_1_0__f_clk:A 0.000000
4 clknet_0_clk:1 clkbuf_0_clk:X 0.000000
*END

*D_NET clknet_1_0__leaf_clk 2.523944
*CONN
*I g_slice_0__u_slice___19_:CLK B
*I g_slice_3__u_slice___19_:CLK B
*I clkbuf_1_0__f_clk:X B
*CAP
1 clknet_1_0__leaf_clk:2 2.471887
2 clknet_1_0__leaf_clk:2 g_slice_0__u_slice___05_:2 0.002624
3 clknet_1_0__leaf_clk:2 g_slice_3__u_slice___00_:2 0.003137
4 clknet_1_0__leaf_clk:2 g_slice_3__u_slice___05_:2 0.003620
5 clknet_1_0__leaf_clk:2 g_slice_3__u_slice__ff_q:2 0.005602
6 clknet_1_0__leaf_clk:2 lut_in\[7\]:2 0.005068
7 clknet_1_0__leaf_clk:2 u_sm___037_:2 0.003357
8 clknet_1_0__leaf_clk:2 u_sm___038_:2 0.005247
9 clknet_1_0__leaf_clk:2 u_sm___039_:2 0.023402
*RES
1 clknet_1_0__leaf_clk:1 clknet_1_0__leaf_clk:2 343.251000
2 clknet_1_0__leaf_clk:1 g_slice_0__u_slice___19_:CLK 0.000000
3 clknet_1_0__leaf_clk:1 g_slice_3__u_slice___19_:CLK 0.000000
4 clknet_1_0__leaf_clk:1 clkbuf_1_0__f_clk:X 0.000000
*END

*D_NET clknet_1_1__leaf_clk 2.219500
*CONN
*I g_slice_1__u_slice___19_:CLK B
*I g_slice_2__u_slice___19_:CLK B
*I clkbuf_1_1__f_clk:X B
*CAP
1 clknet_1_1__leaf_clk:2 2.209636
2 clknet_1_1__leaf_clk:2 lut_in\[10\]:2 0.003620
3 clknet_1_1__leaf_clk:2 lut_in\[8\]:2 0.002624
4 clknet_1_1__leaf_clk:2 lut_in\[9\]:2 0.003620
*RES
1 clknet_1_1__leaf_clk:1 clknet_1_1__leaf_clk:2 346.008600
2 clknet_1_1__leaf_clk:1 g_slice_1__u_slice___19_:CLK 0.000000
3 clknet_1_1__leaf_clk:1 g_slice_2__u_slice___19_:CLK 0.000000
4 clknet_1_1__leaf_clk:1 clkbuf_1_1__f_clk:X 0.000000
*END

*D_NET e_in\[0\] 15.007199
*CONN
*P e_in\[0\] B
*I u_sm___169_:A1 B
*I u_sm___168_:A1 B
*I u_sm___161_:A0 B
*I u_sm___159_:A1 B
*I u_sm___155_:A1 B
*I u_sm___146_:A1 B
*I u_sm___142_:A1 B
*I u_sm___122_:A1 B
*I u_sm___102_:A1 B
*CAP
1 e_in\[0\]:2 14.585821
2 e_in\[0\]:2 e_in\[1\]:2 0.014115
3 e_in\[0\]:2 e_in\[2\]:2 0.022326
4 e_in\[0\]:2 e_in\[3\]:2 0.023732
5 e_in\[0\]:2 e_out\[0\]:2 0.002624
6 e_in\[0\]:2 e_out\[1\]:2 0.002624
7 e_in\[0\]:2 e_out\[2\]:2 0.002624
8 e_in\[0\]:2 e_out\[3\]:2 0.011244
9 e_in\[0\]:2 g_slice_3__u_slice___02_:2 0.005068
10 e_in\[0\]:2 g_slice_3__u_slice___03_:2 0.003620
11 e_in\[0\]:2 lut_in\[12\]:2 0.016219
12 e_in\[0\]:2 lut_in\[13\]:2 0.003620
13 e_in\[0\]:2 n_in\[0\]:2 0.042497
14 e_in\[0\]:2 n_in\[1\]:2 0.002624
15 e_in\[0\]:2 n_in\[2\]:2 0.022735
16 e_in\[0\]:2 n_in\[3\]:2 0.011491
17 e_in\[0\]:2 n_out\[0\]:2 0.008867
18 e_in\[0\]:2 n_out\[1\]:2 0.011491
19 e_in\[0\]:2 n_out\[2\]:2 0.027809
20 e_in\[0\]:2 n_out\[3\]:2 0.002624
21 e_in\[0\]:2 s_in\[0\]:2 0.024552
22 e_in\[0\]:2 s_in\[1\]:2 0.011491
23 e_in\[0\]:2 s_in\[2\]:2 0.013484
24 e_in\[0\]:2 s_in\[3\]:2 0.008867
25 e_in\[0\]:2 s_out\[0\]:2 0.002624
26 e_in\[0\]:2 s_out\[1\]:2 0.002624
27 e_in\[0\]:2 s_out\[3\]:2 0.028881
28 e_in\[0\]:2 u_sm___056_:2 0.005247
29 e_in\[0\]:2 u_sm___059_:2 0.002624
30 e_in\[0\]:2 u_sm___061_:2 0.003620
31 e_in\[0\]:2 u_sm___064_:2 0.010166
32 e_in\[0\]:2 u_sm___065_:2 0.003620
33 e_in\[0\]:2 w_in\[0\]:2 0.020927
34 e_in\[0\]:2 w_in\[1\]:2 0.021046
35 e_in\[0\]:2 w_in\[2\]:2 0.014783
36 e_in\[0\]:2 w_in\[3\]:2 0.006244
37 e_in\[0\]:2 w_out\[3\]:2 0.002624
*RES
1 e_in[0] e_in\[0\]:2 356.487600
2 e_in[0] u_sm___169_:A1 0.000000
3 e_in[0] u_sm___168_:A1 0.000000
4 e_in[0] u_sm___161_:A0 0.000000
5 e_in[0] u_sm___159_:A1 0.000000
6 e_in[0] u_sm___155_:A1 0.000000
7 e_in[0] u_sm___146_:A1 0.000000
8 e_in[0] u_sm___142_:A1 0.000000
9 e_in[0] u_sm___122_:A1 0.000000
10 e_in[0] u_sm___102_:A1 0.000000
*END

*D_NET e_in\[1\] 12.976996
*CONN
*P e_in\[1\] B
*I u_sm___170_:A1 B
*I u_sm___160_:A1 B
*I u_sm___156_:A1 B
*I u_sm___148_:A0 B
*I u_sm___147_:A1 B
*I u_sm___143_:A1 B
*I u_sm___127_:A1 B
*I u_sm___107_:A1 B
*CAP
1 e_in\[1\]:2 12.560086
2 e_in\[1\]:2 e_in\[2\]:2 0.026355
3 e_in\[1\]:2 e_in\[3\]:2 0.016125
4 e_in\[1\]:2 e_out\[0\]:2 0.002624
5 e_in\[1\]:2 e_out\[1\]:2 0.002624
6 e_in\[1\]:2 e_out\[2\]:2 0.002624
7 e_in\[1\]:2 e_out\[3\]:2 0.003620
8 e_in\[1\]:2 g_slice_3__u_slice___05_:2 0.003620
9 e_in\[1\]:2 lut_in\[13\]:2 0.002718
10 e_in\[1\]:2 lut_in\[14\]:2 0.006934
11 e_in\[1\]:2 n_in\[0\]:2 0.020358
12 e_in\[1\]:2 n_in\[1\]:2 0.018743
13 e_in\[1\]:2 n_in\[2\]:2 0.021986
14 e_in\[1\]:2 n_in\[3\]:2 0.012462
15 e_in\[1\]:2 n_out\[0\]:2 0.002624
16 e_in\[1\]:2 n_out\[1\]:2 0.002624
17 e_in\[1\]:2 n_out\[2\]:2 0.011183
18 e_in\[1\]:2 s_in\[0\]:2 0.016380
19 e_in\[1\]:2 s_in\[1\]:2 0.024275
20 e_in\[1\]:2 s_in\[2\]:2 0.020050
21 e_in\[1\]:2 s_in\[3\]:2 0.019373
22 e_in\[1\]:2 s_out\[3\]:2 0.003620
23 e_in\[1\]:2 u_sm___009_:2 0.002624
24 e_in\[1\]:2 u_sm___010_:2 0.002624
25 e_in\[1\]:2 u_sm___011_:2 0.007563
26 e_in\[1\]:2 u_sm___012_:2 0.008205
27 e_in\[1\]:2 u_sm___013_:2 0.003620
28 e_in\[1\]:2 u_sm___014_:2 0.005276
29 e_in\[1\]:2 u_sm___016_:2 0.002624
30 e_in\[1\]:2 u_sm___017_:2 0.003620
31 e_in\[1\]:2 u_sm___022_:2 0.007563
32 e_in\[1\]:2 u_sm___023_:2 0.003620
33 e_in\[1\]:2 u_sm___024_:2 0.002624
34 e_in\[1\]:2 u_sm___025_:2 0.003997
35 e_in\[1\]:2 u_sm___026_:2 0.002624
36 e_in\[1\]:2 u_sm___027_:2 0.002624
37 e_in\[1\]:2 u_sm___030_:2 0.005247
38 e_in\[1\]:2 u_sm___032_:2 0.002624
39 e_in\[1\]:2 u_sm___033_:2 0.002624
40 e_in\[1\]:2 u_sm___044_:2 0.002624
41 e_in\[1\]:2 u_sm___056_:2 0.005247
42 e_in\[1\]:2 u_sm___059_:2 0.004310
43 e_in\[1\]:2 u_sm___060_:2 0.002718
44 e_in\[1\]:2 u_sm___061_:2 0.003620
45 e_in\[1\]:2 u_sm___063_:2 0.005068
46 e_in\[1\]:2 u_sm___065_:2 0.002624
47 e_in\[1\]:2 u_sm___066_:2 0.003620
48 e_in\[1\]:2 u_sm___067_:2 0.002624
49 e_in\[1\]:2 w_in\[0\]:2 0.010860
50 e_in\[1\]:2 w_in\[1\]:2 0.045541
51 e_in\[1\]:2 w_in\[2\]:2 0.012181
52 e_in\[1\]:2 w_in\[3\]:2 0.002624
53 e_in\[1\]:2 w_out\[3\]:2 0.002624
*RES
1 e_in[1] e_in\[1\]:2 321.804200
2 e_in[1] u_sm___170_:A1 0.000000
3 e_in[1] u_sm___160_:A1 0.000000
4 e_in[1] u_sm___156_:A1 0.000000
5 e_in[1] u_sm___148_:A0 0.000000
6 e_in[1] u_sm___147_:A1 0.000000
7 e_in[1] u_sm___143_:A1 0.000000
8 e_in[1] u_sm___127_:A1 0.000000
9 e_in[1] u_sm___107_:A1 0.000000
*END

*D_NET e_in\[2\] 13.238874
*CONN
*P e_in\[2\] B
*I u_sm___171_:A1 B
*I u_sm___166_:A1 B
*I u_sm___157_:A1 B
*I u_sm___153_:A1 B
*I u_sm___144_:A1 B
*I u_sm___132_:A2 B
*I u_sm___112_:A2 B
*I u_sm___069_:A0 B
*CAP
1 e_in\[2\]:2 12.902809
2 e_in\[2\]:2 e_in\[3\]:2 0.011491
3 e_in\[2\]:2 e_out\[0\]:2 0.002624
4 e_in\[2\]:2 e_out\[1\]:2 0.002624
5 e_in\[2\]:2 e_out\[2\]:2 0.002624
6 e_in\[2\]:2 e_out\[3\]:2 0.002624
7 e_in\[2\]:2 g_slice_3__u_slice___00_:2 0.002624
8 e_in\[2\]:2 g_slice_3__u_slice___05_:2 0.008867
9 e_in\[2\]:2 g_slice_3__u_slice__ff_q:2 0.004310
10 e_in\[2\]:2 lut_in\[0\]:2 0.003620
11 e_in\[2\]:2 lut_in\[11\]:2 0.017376
12 e_in\[2\]:2 lut_in\[14\]:2 0.005276
13 e_in\[2\]:2 lut_in\[4\]:2 0.005247
14 e_in\[2\]:2 lut_in\[5\]:2 0.005247
15 e_in\[2\]:2 lut_in\[6\]:2 0.006395
16 e_in\[2\]:2 lut_in\[8\]:2 0.004310
17 e_in\[2\]:2 lut_in\[9\]:2 0.002624
18 e_in\[2\]:2 n_in\[0\]:2 0.018152
19 e_in\[2\]:2 n_in\[1\]:2 0.014115
20 e_in\[2\]:2 n_in\[2\]:2 0.037930
21 e_in\[2\]:2 n_in\[3\]:2 0.011491
22 e_in\[2\]:2 n_out\[0\]:2 0.002624
23 e_in\[2\]:2 n_out\[1\]:2 0.002624
24 e_in\[2\]:2 n_out\[2\]:2 0.003620
25 e_in\[2\]:2 n_out\[3\]:2 0.002624
26 e_in\[2\]:2 s_in\[0\]:2 0.006244
27 e_in\[2\]:2 s_in\[1\]:2 0.013156
28 e_in\[2\]:2 s_in\[2\]:2 0.019551
29 e_in\[2\]:2 s_in\[3\]:2 0.009864
30 e_in\[2\]:2 s_out\[1\]:2 0.002624
31 e_in\[2\]:2 s_out\[2\]:2 0.002624
32 e_in\[2\]:2 s_out\[3\]:2 0.011183
33 e_in\[2\]:2 u_sm___001_:2 0.002718
34 e_in\[2\]:2 u_sm___003_:2 0.002624
35 e_in\[2\]:2 u_sm___029_:2 0.004310
36 e_in\[2\]:2 u_sm___031_:2 0.002624
37 e_in\[2\]:2 u_sm___032_:2 0.003620
38 e_in\[2\]:2 u_sm___036_:2 0.002624
39 e_in\[2\]:2 u_sm___037_:2 0.002624
40 e_in\[2\]:2 u_sm___038_:2 0.002624
41 e_in\[2\]:2 u_sm___039_:2 0.002624
42 e_in\[2\]:2 w_in\[0\]:2 0.013935
43 e_in\[2\]:2 w_in\[1\]:2 0.017794
44 e_in\[2\]:2 w_in\[2\]:2 0.023764
45 e_in\[2\]:2 w_in\[3\]:2 0.007871
*RES
1 e_in[2] e_in\[2\]:2 370.782400
2 e_in[2] u_sm___171_:A1 0.000000
3 e_in[2] u_sm___166_:A1 0.000000
4 e_in[2] u_sm___157_:A1 0.000000
5 e_in[2] u_sm___153_:A1 0.000000
6 e_in[2] u_sm___144_:A1 0.000000
7 e_in[2] u_sm___132_:A2 0.000000
8 e_in[2] u_sm___112_:A2 0.000000
9 e_in[2] u_sm___069_:A0 0.000000
*END

*D_NET e_in\[3\] 13.222989
*CONN
*P e_in\[3\] B
*I u_sm___172_:A1 B
*I u_sm___167_:A1 B
*I u_sm___158_:A1 B
*I u_sm___154_:A1 B
*I u_sm___145_:A1 B
*I u_sm___137_:A1 B
*I u_sm___117_:A1 B
*I u_sm___077_:A0 B
*CAP
1 e_in\[3\]:2 12.836365
2 e_in\[3\]:2 e_out\[0\]:2 0.002624
3 e_in\[3\]:2 e_out\[1\]:2 0.002624
4 e_in\[3\]:2 e_out\[2\]:2 0.002624
5 e_in\[3\]:2 e_out\[3\]:2 0.003620
6 e_in\[3\]:2 g_slice_3__u_slice___02_:2 0.003620
7 e_in\[3\]:2 g_slice_3__u_slice___03_:2 0.003620
8 e_in\[3\]:2 g_slice_3__u_slice___04_:2 0.003620
9 e_in\[3\]:2 lut_in\[10\]:2 0.000827
10 e_in\[3\]:2 lut_in\[12\]:2 0.006244
11 e_in\[3\]:2 lut_in\[13\]:2 0.003620
12 e_in\[3\]:2 lut_in\[15\]:2 0.011197
13 e_in\[3\]:2 lut_in\[2\]:2 0.002718
14 e_in\[3\]:2 n_in\[0\]:2 0.028545
15 e_in\[3\]:2 n_in\[1\]:2 0.005247
16 e_in\[3\]:2 n_in\[2\]:2 0.022691
17 e_in\[3\]:2 n_in\[3\]:2 0.030302
18 e_in\[3\]:2 n_out\[0\]:2 0.002624
19 e_in\[3\]:2 n_out\[1\]:2 0.002624
20 e_in\[3\]:2 n_out\[2\]:2 0.013165
21 e_in\[3\]:2 n_out\[3\]:2 0.003620
22 e_in\[3\]:2 s_in\[0\]:2 0.021483
23 e_in\[3\]:2 s_in\[1\]:2 0.017073
24 e_in\[3\]:2 s_in\[2\]:2 0.009864
25 e_in\[3\]:2 s_in\[3\]:2 0.018257
26 e_in\[3\]:2 s_out\[3\]:2 0.015493
27 e_in\[3\]:2 u_sm___008_:2 0.005276
28 e_in\[3\]:2 u_sm___009_:2 0.002624
29 e_in\[3\]:2 u_sm___010_:2 0.002624
30 e_in\[3\]:2 u_sm___011_:2 0.003620
31 e_in\[3\]:2 u_sm___012_:2 0.002624
32 e_in\[3\]:2 u_sm___016_:2 0.002624
33 e_in\[3\]:2 u_sm___023_:2 0.006781
34 e_in\[3\]:2 u_sm___024_:2 0.002624
35 e_in\[3\]:2 u_sm___025_:2 0.002624
36 e_in\[3\]:2 u_sm___026_:2 0.002624
37 e_in\[3\]:2 u_sm___027_:2 0.011351
38 e_in\[3\]:2 u_sm___030_:2 0.005247
39 e_in\[3\]:2 u_sm___044_:2 0.002624
40 e_in\[3\]:2 u_sm___048_:2 0.004310
41 e_in\[3\]:2 u_sm___056_:2 0.005247
42 e_in\[3\]:2 u_sm___061_:2 0.003620
43 e_in\[3\]:2 u_sm___063_:2 0.007563
44 e_in\[3\]:2 u_sm___065_:2 0.003620
45 e_in\[3\]:2 u_sm___066_:2 0.003620
46 e_in\[3\]:2 u_sm___067_:2 0.003620
47 e_in\[3\]:2 w_in\[0\]:2 0.017104
48 e_in\[3\]:2 w_in\[1\]:2 0.022425
49 e_in\[3\]:2 w_in\[2\]:2 0.005247
50 e_in\[3\]:2 w_in\[3\]:2 0.011163
51 e_in\[3\]:2 w_out\[0\]:2 0.002624
52 e_in\[3\]:2 w_out\[1\]:2 0.002624
53 e_in\[3\]:2 w_out\[3\]:2 0.002624
*RES
1 e_in[3] e_in\[3\]:2 326.027800
2 e_in[3] u_sm___172_:A1 0.000000
3 e_in[3] u_sm___167_:A1 0.000000
4 e_in[3] u_sm___158_:A1 0.000000
5 e_in[3] u_sm___154_:A1 0.000000
6 e_in[3] u_sm___145_:A1 0.000000
7 e_in[3] u_sm___137_:A1 0.000000
8 e_in[3] u_sm___117_:A1 0.000000
9 e_in[3] u_sm___077_:A0 0.000000
*END

*D_NET e_out\[0\] 2.593425
*CONN
*P e_out\[0\] B
*I u_sm___086_:X B
*CAP
1 e_out\[0\]:2 2.538660
2 e_out\[0\]:2 e_out\[2\]:2 0.007100
3 e_out\[0\]:2 n_in\[2\]:2 0.006244
4 e_out\[0\]:2 n_out\[0\]:2 0.002624
5 e_out\[0\]:2 n_out\[1\]:2 0.002624
6 e_out\[0\]:2 n_out\[2\]:2 0.003620
7 e_out\[0\]:2 s_in\[0\]:2 0.004477
8 e_out\[0\]:2 s_in\[1\]:2 0.002624
9 e_out\[0\]:2 s_out\[3\]:2 0.003620
10 e_out\[0\]:2 u_sm___020_:2 0.006061
11 e_out\[0\]:2 u_sm___022_:2 0.007900
12 e_out\[0\]:2 u_sm___023_:2 0.002624
13 e_out\[0\]:2 u_sm___030_:2 0.005247
*RES
1 e_out[0] e_out\[0\]:2 121.515200
2 e_out[0] u_sm___086_:X 0.000000
*END

*D_NET e_out\[1\] 2.494832
*CONN
*P e_out\[1\] B
*I u_sm___091_:X B
*CAP
1 e_out\[1\]:2 2.411062
2 e_out\[1\]:2 e_out\[2\]:2 0.002624
3 e_out\[1\]:2 e_out\[3\]:2 0.008097
4 e_out\[1\]:2 n_in\[0\]:2 0.006244
5 e_out\[1\]:2 n_in\[2\]:2 0.006244
6 e_out\[1\]:2 n_in\[3\]:2 0.006244
7 e_out\[1\]:2 n_out\[0\]:2 0.002624
8 e_out\[1\]:2 n_out\[1\]:2 0.002624
9 e_out\[1\]:2 n_out\[2\]:2 0.003620
10 e_out\[1\]:2 s_in\[2\]:2 0.006244
11 e_out\[1\]:2 s_out\[3\]:2 0.003620
12 e_out\[1\]:2 u_sm___016_:2 0.006061
13 e_out\[1\]:2 u_sm___019_:2 0.004477
14 e_out\[1\]:2 u_sm___024_:2 0.006061
15 e_out\[1\]:2 u_sm___026_:2 0.007900
16 e_out\[1\]:2 u_sm___027_:2 0.002624
17 e_out\[1\]:2 u_sm___030_:2 0.005247
18 e_out\[1\]:2 w_in\[1\]:2 0.003215
*RES
1 e_out[1] e_out\[1\]:2 120.616100
2 e_out[1] u_sm___091_:X 0.000000
*END

*D_NET e_out\[2\] 1.473998
*CONN
*P e_out\[2\] B
*I u_sm___096_:X B
*CAP
1 e_out\[2\]:2 1.451368
2 e_out\[2\]:2 n_in\[2\]:2 0.009285
3 e_out\[2\]:2 n_out\[0\]:2 0.002624
4 e_out\[2\]:2 n_out\[1\]:2 0.002624
5 e_out\[2\]:2 n_out\[2\]:2 0.003620
6 e_out\[2\]:2 u_sm___023_:2 0.004477
*RES
1 e_out[2] e_out\[2\]:2 110.502500
2 e_out[2] u_sm___096_:X 0.000000
*END

*D_NET e_out\[3\] 2.065154
*CONN
*P e_out\[3\] B
*I u_sm___101_:X B
*CAP
1 e_out\[3\]:2 2.009773
2 e_out\[3\]:2 n_in\[2\]:2 0.007240
3 e_out\[3\]:2 n_in\[3\]:2 0.007240
4 e_out\[3\]:2 n_out\[0\]:2 0.002624
5 e_out\[3\]:2 n_out\[1\]:2 0.002624
6 e_out\[3\]:2 n_out\[2\]:2 0.005602
7 e_out\[3\]:2 s_in\[2\]:2 0.007240
8 e_out\[3\]:2 s_out\[3\]:2 0.003620
9 e_out\[3\]:2 u_sm___027_:2 0.008314
10 e_out\[3\]:2 u_sm___030_:2 0.010877
*RES
1 e_out[3] e_out\[3\]:2 108.011600
2 e_out[3] u_sm___101_:X 0.000000
*END

*D_NET g_slice_0__u_slice___00_ 1.416766
*CONN
*I g_slice_0__u_slice___19_:D B
*I g_slice_0__u_slice___18_:X B
*CAP
1 g_slice_0__u_slice___00_:2 1.397214
2 g_slice_0__u_slice___00_:2 lut_in\[4\]:2 0.002624
3 g_slice_0__u_slice___00_:2 lut_in\[5\]:2 0.002624
4 g_slice_0__u_slice___00_:2 lut_in\[6\]:2 0.002624
5 g_slice_0__u_slice___00_:2 lut_in\[7\]:2 0.002624
6 g_slice_0__u_slice___00_:2 lut_in\[8\]:2 0.003620
7 g_slice_0__u_slice___00_:2 s_out\[2\]:2 0.005436
*RES
1 g_slice_0__u_slice___00_:1 g_slice_0__u_slice___00_:2 152.117200
2 g_slice_0__u_slice___00_:1 g_slice_0__u_slice___19_:D 0.000000
3 g_slice_0__u_slice___00_:1 g_slice_0__u_slice___18_:X 0.000000
*END

*D_NET g_slice_0__u_slice___01_ 1.473285
*CONN
*I g_slice_0__u_slice___13_:A0 B
*I g_slice_0__u_slice___09_:X B
*CAP
1 g_slice_0__u_slice___01_:2 1.456451
2 g_slice_0__u_slice___01_:2 g_slice_0__u_slice___05_:2 0.005342
3 g_slice_0__u_slice___01_:2 lut_in\[7\]:2 0.002624
4 g_slice_0__u_slice___01_:2 lut_in\[9\]:2 0.003620
5 g_slice_0__u_slice___01_:2 w_in\[0\]:2 0.002624
6 g_slice_0__u_slice___01_:2 w_in\[1\]:2 0.002624
*RES
1 g_slice_0__u_slice___01_:1 g_slice_0__u_slice___01_:2 185.490500
2 g_slice_0__u_slice___01_:1 g_slice_0__u_slice___13_:A0 0.000000
3 g_slice_0__u_slice___01_:1 g_slice_0__u_slice___09_:X 0.000000
*END

*D_NET g_slice_0__u_slice___02_ 0.868198
*CONN
*I g_slice_0__u_slice___13_:A1 B
*I g_slice_0__u_slice___10_:X B
*CAP
1 g_slice_0__u_slice___02_:2 0.862950
2 g_slice_0__u_slice___02_:2 lut_in\[3\]:2 0.002624
3 g_slice_0__u_slice___02_:2 lut_in\[7\]:2 0.002624
*RES
1 g_slice_0__u_slice___02_:1 g_slice_0__u_slice___02_:2 153.202100
2 g_slice_0__u_slice___02_:1 g_slice_0__u_slice___13_:A1 0.000000
3 g_slice_0__u_slice___02_:1 g_slice_0__u_slice___10_:X 0.000000
*END

*D_NET g_slice_0__u_slice___03_ 0.665670
*CONN
*I g_slice_0__u_slice___13_:A2 B
*I g_slice_0__u_slice___11_:X B
*CAP
1 g_slice_0__u_slice___03_:2 0.659275
2 g_slice_0__u_slice___03_:2 lut_in\[2\]:2 0.006395
*RES
1 g_slice_0__u_slice___03_:1 g_slice_0__u_slice___03_:2 171.110300
2 g_slice_0__u_slice___03_:1 g_slice_0__u_slice___13_:A2 0.000000
3 g_slice_0__u_slice___03_:1 g_slice_0__u_slice___11_:X 0.000000
*END

*D_NET g_slice_0__u_slice___04_ 1.010050
*CONN
*I g_slice_0__u_slice___13_:A3 B
*I g_slice_0__u_slice___12_:X B
*CAP
1 g_slice_0__u_slice___04_:2 0.993080
2 g_slice_0__u_slice___04_:2 lut_in\[2\]:2 0.010632
3 g_slice_0__u_slice___04_:2 lut_in\[6\]:2 0.002718
4 g_slice_0__u_slice___04_:2 lut_in\[8\]:2 0.003620
*RES
1 g_slice_0__u_slice___04_:1 g_slice_0__u_slice___04_:2 171.761000
2 g_slice_0__u_slice___04_:1 g_slice_0__u_slice___13_:A3 0.000000
3 g_slice_0__u_slice___04_:1 g_slice_0__u_slice___12_:X 0.000000
*END

*D_NET g_slice_0__u_slice___05_ 4.026157
*CONN
*I g_slice_0__u_slice___18_:A2 B
*I g_slice_0__u_slice___14_:A0 B
*I g_slice_0__u_slice___13_:X B
*CAP
1 g_slice_0__u_slice___05_:2 3.974374
2 g_slice_0__u_slice___05_:2 g_slice_0__u_slice___06_:2 0.005247
3 g_slice_0__u_slice___05_:2 g_slice_0__u_slice___07_:2 0.004310
4 g_slice_0__u_slice___05_:2 lut_in\[4\]:2 0.002624
5 g_slice_0__u_slice___05_:2 lut_in\[5\]:2 0.002624
6 g_slice_0__u_slice___05_:2 lut_in\[6\]:2 0.002624
7 g_slice_0__u_slice___05_:2 lut_in\[7\]:2 0.005247
8 g_slice_0__u_slice___05_:2 lut_in\[8\]:2 0.002624
9 g_slice_0__u_slice___05_:2 u_sm___037_:2 0.003357
10 g_slice_0__u_slice___05_:2 u_sm___038_:2 0.005247
11 g_slice_0__u_slice___05_:2 u_sm___039_:2 0.012631
12 g_slice_0__u_slice___05_:2 w_in\[0\]:2 0.002624
13 g_slice_0__u_slice___05_:2 w_in\[2\]:2 0.002624
*RES
1 g_slice_0__u_slice___05_:1 g_slice_0__u_slice___05_:2 326.758000
2 g_slice_0__u_slice___05_:1 g_slice_0__u_slice___18_:A2 0.000000
3 g_slice_0__u_slice___05_:1 g_slice_0__u_slice___14_:A0 0.000000
4 g_slice_0__u_slice___05_:1 g_slice_0__u_slice___13_:X 0.000000
*END

*D_NET g_slice_0__u_slice___06_ 0.969211
*CONN
*I g_slice_0__u_slice___18_:A1 B
*I g_slice_0__u_slice___15_:Y B
*CAP
1 g_slice_0__u_slice___06_:2 0.951072
2 g_slice_0__u_slice___06_:2 g_slice_0__u_slice___07_:2 0.002624
3 g_slice_0__u_slice___06_:2 lut_in\[4\]:2 0.002624
4 g_slice_0__u_slice___06_:2 lut_in\[5\]:2 0.002624
5 g_slice_0__u_slice___06_:2 lut_in\[6\]:2 0.004991
6 g_slice_0__u_slice___06_:2 lut_in\[7\]:2 0.005276
*RES
1 g_slice_0__u_slice___06_:1 g_slice_0__u_slice___06_:2 149.385200
2 g_slice_0__u_slice___06_:1 g_slice_0__u_slice___18_:A1 0.000000
3 g_slice_0__u_slice___06_:1 g_slice_0__u_slice___15_:Y 0.000000
*END

*D_NET g_slice_0__u_slice___07_ 0.768336
*CONN
*I g_slice_0__u_slice___17_:B B
*I g_slice_0__u_slice___16_:Y B
*CAP
1 g_slice_0__u_slice___07_:2 0.752536
2 g_slice_0__u_slice___07_:2 g_slice_0__u_slice___08_:2 0.002624
3 g_slice_0__u_slice___07_:2 lut_in\[4\]:2 0.005276
4 g_slice_0__u_slice___07_:2 lut_in\[5\]:2 0.007900
*RES
1 g_slice_0__u_slice___07_:1 g_slice_0__u_slice___07_:2 166.259900
2 g_slice_0__u_slice___07_:1 g_slice_0__u_slice___17_:B 0.000000
3 g_slice_0__u_slice___07_:1 g_slice_0__u_slice___16_:Y 0.000000
*END

*D_NET g_slice_0__u_slice___08_ 0.992307
*CONN
*I g_slice_0__u_slice___18_:B1 B
*I g_slice_0__u_slice___17_:Y B
*CAP
1 g_slice_0__u_slice___08_:2 0.969813
2 g_slice_0__u_slice___08_:2 lut_in\[11\]:2 0.003137
3 g_slice_0__u_slice___08_:2 lut_in\[4\]:2 0.002624
4 g_slice_0__u_slice___08_:2 lut_in\[5\]:2 0.002624
5 g_slice_0__u_slice___08_:2 lut_in\[6\]:2 0.008833
6 g_slice_0__u_slice___08_:2 lut_in\[7\]:2 0.005276
*RES
1 g_slice_0__u_slice___08_:1 g_slice_0__u_slice___08_:2 176.924900
2 g_slice_0__u_slice___08_:1 g_slice_0__u_slice___18_:B1 0.000000
3 g_slice_0__u_slice___08_:1 g_slice_0__u_slice___17_:Y 0.000000
*END

*D_NET g_slice_0__u_slice__ff_q 1.325388
*CONN
*I g_slice_0__u_slice___19_:Q B
*I g_slice_0__u_slice___16_:A B
*I g_slice_0__u_slice___14_:A1 B
*CAP
1 g_slice_0__u_slice__ff_q:2 1.311145
2 g_slice_0__u_slice__ff_q:2 lut_in\[5\]:2 0.002624
3 g_slice_0__u_slice__ff_q:2 lut_in\[6\]:2 0.008995
4 g_slice_0__u_slice__ff_q:2 lut_in\[7\]:2 0.002624
*RES
1 g_slice_0__u_slice__ff_q:1 g_slice_0__u_slice__ff_q:2 202.123300
2 g_slice_0__u_slice__ff_q:1 g_slice_0__u_slice___19_:Q 0.000000
3 g_slice_0__u_slice__ff_q:1 g_slice_0__u_slice___16_:A 0.000000
4 g_slice_0__u_slice__ff_q:1 g_slice_0__u_slice___14_:A1 0.000000
*END

*D_NET g_slice_1__u_slice___00_ 0.599492
*CONN
*I g_slice_1__u_slice___19_:D B
*I g_slice_1__u_slice___18_:X B
*CAP
1 g_slice_1__u_slice___00_:2 0.599492
*RES
1 g_slice_1__u_slice___00_:1 g_slice_1__u_slice___00_:2 143.030300
2 g_slice_1__u_slice___00_:1 g_slice_1__u_slice___19_:D 0.000000
3 g_slice_1__u_slice___00_:1 g_slice_1__u_slice___18_:X 0.000000
*END

*D_NET g_slice_1__u_slice___01_ 1.371872
*CONN
*I g_slice_1__u_slice___13_:A0 B
*I g_slice_1__u_slice___09_:X B
*CAP
1 g_slice_1__u_slice___01_:2 1.361640
2 g_slice_1__u_slice___01_:2 g_slice_1__u_slice___02_:2 0.004956
3 g_slice_1__u_slice___01_:2 g_slice_1__u_slice___05_:2 0.005276
*RES
1 g_slice_1__u_slice___01_:1 g_slice_1__u_slice___01_:2 184.008400
2 g_slice_1__u_slice___01_:1 g_slice_1__u_slice___13_:A0 0.000000
3 g_slice_1__u_slice___01_:1 g_slice_1__u_slice___09_:X 0.000000
*END

*D_NET g_slice_1__u_slice___02_ 0.929457
*CONN
*I g_slice_1__u_slice___13_:A1 B
*I g_slice_1__u_slice___10_:X B
*CAP
1 g_slice_1__u_slice___02_:2 0.918466
2 g_slice_1__u_slice___02_:2 g_slice_1__u_slice___05_:2 0.010991
*RES
1 g_slice_1__u_slice___02_:1 g_slice_1__u_slice___02_:2 153.648100
2 g_slice_1__u_slice___02_:1 g_slice_1__u_slice___13_:A1 0.000000
3 g_slice_1__u_slice___02_:1 g_slice_1__u_slice___10_:X 0.000000
*END

*D_NET g_slice_1__u_slice___03_ 1.358544
*CONN
*I g_slice_1__u_slice___13_:A2 B
*I g_slice_1__u_slice___11_:X B
*CAP
1 g_slice_1__u_slice___03_:2 1.337616
2 g_slice_1__u_slice___03_:2 g_slice_1__u_slice___04_:2 0.002624
3 g_slice_1__u_slice___03_:2 lut_in\[4\]:2 0.009285
4 g_slice_1__u_slice___03_:2 lut_in\[5\]:2 0.002624
5 g_slice_1__u_slice___03_:2 lut_in\[6\]:2 0.006395
*RES
1 g_slice_1__u_slice___03_:1 g_slice_1__u_slice___03_:2 173.648500
2 g_slice_1__u_slice___03_:1 g_slice_1__u_slice___13_:A2 0.000000
3 g_slice_1__u_slice___03_:1 g_slice_1__u_slice___11_:X 0.000000
*END

*D_NET g_slice_1__u_slice___04_ 2.052728
*CONN
*I g_slice_1__u_slice___13_:A3 B
*I g_slice_1__u_slice___12_:X B
*CAP
1 g_slice_1__u_slice___04_:2 2.022123
2 g_slice_1__u_slice___04_:2 lut_in\[4\]:2 0.007871
3 g_slice_1__u_slice___04_:2 lut_in\[5\]:2 0.002624
4 g_slice_1__u_slice___04_:2 lut_in\[6\]:2 0.008619
5 g_slice_1__u_slice___04_:2 n_out\[3\]:2 0.005247
6 g_slice_1__u_slice___04_:2 s_out\[2\]:2 0.006244
*RES
1 g_slice_1__u_slice___04_:1 g_slice_1__u_slice___04_:2 182.426700
2 g_slice_1__u_slice___04_:1 g_slice_1__u_slice___13_:A3 0.000000
3 g_slice_1__u_slice___04_:1 g_slice_1__u_slice___12_:X 0.000000
*END

*D_NET g_slice_1__u_slice___05_ 1.948291
*CONN
*I g_slice_1__u_slice___18_:A2 B
*I g_slice_1__u_slice___14_:A0 B
*I g_slice_1__u_slice___13_:X B
*CAP
1 g_slice_1__u_slice___05_:2 1.926699
2 g_slice_1__u_slice___05_:2 g_slice_1__u_slice___06_:2 0.002624
3 g_slice_1__u_slice___05_:2 g_slice_1__u_slice___08_:2 0.004819
4 g_slice_1__u_slice___05_:2 g_slice_1__u_slice__ff_q:2 0.004310
5 g_slice_1__u_slice___05_:2 lut_in\[11\]:2 0.009839
*RES
1 g_slice_1__u_slice___05_:1 g_slice_1__u_slice___05_:2 304.956300
2 g_slice_1__u_slice___05_:1 g_slice_1__u_slice___18_:A2 0.000000
3 g_slice_1__u_slice___05_:1 g_slice_1__u_slice___14_:A0 0.000000
4 g_slice_1__u_slice___05_:1 g_slice_1__u_slice___13_:X 0.000000
*END

*D_NET g_slice_1__u_slice___06_ 1.030414
*CONN
*I g_slice_1__u_slice___18_:A1 B
*I g_slice_1__u_slice___15_:Y B
*CAP
1 g_slice_1__u_slice___06_:2 1.023742
2 g_slice_1__u_slice___06_:2 g_slice_1__u_slice___08_:2 0.002624
3 g_slice_1__u_slice___06_:2 g_slice_1__u_slice__ff_q:2 0.004048
*RES
1 g_slice_1__u_slice___06_:1 g_slice_1__u_slice___06_:2 149.967000
2 g_slice_1__u_slice___06_:1 g_slice_1__u_slice___18_:A1 0.000000
3 g_slice_1__u_slice___06_:1 g_slice_1__u_slice___15_:Y 0.000000
*END

*D_NET g_slice_1__u_slice___07_ 1.007353
*CONN
*I g_slice_1__u_slice___17_:B B
*I g_slice_1__u_slice___16_:Y B
*CAP
1 g_slice_1__u_slice___07_:2 0.999299
2 g_slice_1__u_slice___07_:2 g_slice_1__u_slice___08_:2 0.008054
*RES
1 g_slice_1__u_slice___07_:1 g_slice_1__u_slice___07_:2 168.858400
2 g_slice_1__u_slice___07_:1 g_slice_1__u_slice___17_:B 0.000000
3 g_slice_1__u_slice___07_:1 g_slice_1__u_slice___16_:Y 0.000000
*END

*D_NET g_slice_1__u_slice___08_ 0.634418
*CONN
*I g_slice_1__u_slice___18_:B1 B
*I g_slice_1__u_slice___17_:Y B
*CAP
1 g_slice_1__u_slice___08_:2 0.631794
2 g_slice_1__u_slice___08_:2 lut_in\[11\]:2 0.002624
*RES
1 g_slice_1__u_slice___08_:1 g_slice_1__u_slice___08_:2 173.763400
2 g_slice_1__u_slice___08_:1 g_slice_1__u_slice___18_:B1 0.000000
3 g_slice_1__u_slice___08_:1 g_slice_1__u_slice___17_:Y 0.000000
*END

*D_NET g_slice_1__u_slice__ff_q 1.381010
*CONN
*I g_slice_1__u_slice___19_:Q B
*I g_slice_1__u_slice___16_:A B
*I g_slice_1__u_slice___14_:A1 B
*CAP
1 g_slice_1__u_slice__ff_q:2 1.381010
*RES
1 g_slice_1__u_slice__ff_q:1 g_slice_1__u_slice__ff_q:2 202.350400
2 g_slice_1__u_slice__ff_q:1 g_slice_1__u_slice___19_:Q 0.000000
3 g_slice_1__u_slice__ff_q:1 g_slice_1__u_slice___16_:A 0.000000
4 g_slice_1__u_slice__ff_q:1 g_slice_1__u_slice___14_:A1 0.000000
*END

*D_NET g_slice_2__u_slice___00_ 0.921362
*CONN
*I g_slice_2__u_slice___19_:D B
*I g_slice_2__u_slice___18_:X B
*CAP
1 g_slice_2__u_slice___00_:2 0.921362
*RES
1 g_slice_2__u_slice___00_:1 g_slice_2__u_slice___00_:2 146.411300
2 g_slice_2__u_slice___00_:1 g_slice_2__u_slice___19_:D 0.000000
3 g_slice_2__u_slice___00_:1 g_slice_2__u_slice___18_:X 0.000000
*END

*D_NET g_slice_2__u_slice___01_ 1.199110
*CONN
*I g_slice_2__u_slice___13_:A0 B
*I g_slice_2__u_slice___09_:X B
*CAP
1 g_slice_2__u_slice___01_:2 1.191530
2 g_slice_2__u_slice___01_:2 g_slice_2__u_slice___03_:2 0.004956
3 g_slice_2__u_slice___01_:2 g_slice_2__u_slice___05_:2 0.002624
*RES
1 g_slice_2__u_slice___01_:1 g_slice_2__u_slice___01_:2 182.279900
2 g_slice_2__u_slice___01_:1 g_slice_2__u_slice___13_:A0 0.000000
3 g_slice_2__u_slice___01_:1 g_slice_2__u_slice___09_:X 0.000000
*END

*D_NET g_slice_2__u_slice___02_ 1.306296
*CONN
*I g_slice_2__u_slice___13_:A1 B
*I g_slice_2__u_slice___10_:X B
*CAP
1 g_slice_2__u_slice___02_:2 1.295132
2 g_slice_2__u_slice___02_:2 g_slice_2__u_slice___03_:2 0.002624
3 g_slice_2__u_slice___02_:2 lut_in\[10\]:2 0.005916
4 g_slice_2__u_slice___02_:2 lut_in\[8\]:2 0.002624
*RES
1 g_slice_2__u_slice___02_:1 g_slice_2__u_slice___02_:2 157.978200
2 g_slice_2__u_slice___02_:1 g_slice_2__u_slice___13_:A1 0.000000
3 g_slice_2__u_slice___02_:1 g_slice_2__u_slice___10_:X 0.000000
*END

*D_NET g_slice_2__u_slice___03_ 1.539282
*CONN
*I g_slice_2__u_slice___13_:A2 B
*I g_slice_2__u_slice___11_:X B
*CAP
1 g_slice_2__u_slice___03_:2 1.520886
2 g_slice_2__u_slice___03_:2 g_slice_2__u_slice___04_:2 0.002624
3 g_slice_2__u_slice___03_:2 g_slice_2__u_slice___05_:2 0.007900
4 g_slice_2__u_slice___03_:2 g_slice_2__u_slice__ff_q:2 0.002624
5 g_slice_2__u_slice___03_:2 lut_in\[8\]:2 0.002624
6 g_slice_2__u_slice___03_:2 lut_in\[9\]:2 0.002624
*RES
1 g_slice_2__u_slice___03_:1 g_slice_2__u_slice___03_:2 181.019000
2 g_slice_2__u_slice___03_:1 g_slice_2__u_slice___13_:A2 0.000000
3 g_slice_2__u_slice___03_:1 g_slice_2__u_slice___11_:X 0.000000
*END

*D_NET g_slice_2__u_slice___04_ 1.862054
*CONN
*I g_slice_2__u_slice___13_:A3 B
*I g_slice_2__u_slice___12_:X B
*CAP
1 g_slice_2__u_slice___04_:2 1.835095
2 g_slice_2__u_slice___04_:2 g_slice_2__u_slice___05_:2 0.002624
3 g_slice_2__u_slice___04_:2 g_slice_2__u_slice__ff_q:2 0.008621
4 g_slice_2__u_slice___04_:2 lut_in\[10\]:2 0.004637
5 g_slice_2__u_slice___04_:2 lut_in\[8\]:2 0.008453
6 g_slice_2__u_slice___04_:2 lut_in\[9\]:2 0.002624
*RES
1 g_slice_2__u_slice___04_:1 g_slice_2__u_slice___04_:2 181.158800
2 g_slice_2__u_slice___04_:1 g_slice_2__u_slice___13_:A3 0.000000
3 g_slice_2__u_slice___04_:1 g_slice_2__u_slice___12_:X 0.000000
*END

*D_NET g_slice_2__u_slice___05_ 2.932586
*CONN
*I g_slice_2__u_slice___18_:A2 B
*I g_slice_2__u_slice___14_:A0 B
*I g_slice_2__u_slice___13_:X B
*CAP
1 g_slice_2__u_slice___05_:2 2.864602
2 g_slice_2__u_slice___05_:2 g_slice_2__u_slice___07_:2 0.005276
3 g_slice_2__u_slice___05_:2 g_slice_2__u_slice___08_:2 0.007900
4 g_slice_2__u_slice___05_:2 g_slice_2__u_slice__ff_q:2 0.015320
5 g_slice_2__u_slice___05_:2 lut_in\[10\]:2 0.012810
6 g_slice_2__u_slice___05_:2 lut_in\[11\]:2 0.006934
7 g_slice_2__u_slice___05_:2 lut_in\[8\]:2 0.005247
8 g_slice_2__u_slice___05_:2 lut_in\[9\]:2 0.014497
*RES
1 g_slice_2__u_slice___05_:1 g_slice_2__u_slice___05_:2 309.568100
2 g_slice_2__u_slice___05_:1 g_slice_2__u_slice___18_:A2 0.000000
3 g_slice_2__u_slice___05_:1 g_slice_2__u_slice___14_:A0 0.000000
4 g_slice_2__u_slice___05_:1 g_slice_2__u_slice___13_:X 0.000000
*END

*D_NET g_slice_2__u_slice___06_ 0.523939
*CONN
*I g_slice_2__u_slice___18_:A1 B
*I g_slice_2__u_slice___15_:Y B
*CAP
1 g_slice_2__u_slice___06_:2 0.523939
*RES
1 g_slice_2__u_slice___06_:1 g_slice_2__u_slice___06_:2 132.486700
2 g_slice_2__u_slice___06_:1 g_slice_2__u_slice___18_:A1 0.000000
3 g_slice_2__u_slice___06_:1 g_slice_2__u_slice___15_:Y 0.000000
*END

*D_NET g_slice_2__u_slice___07_ 0.494504
*CONN
*I g_slice_2__u_slice___17_:B B
*I g_slice_2__u_slice___16_:Y B
*CAP
1 g_slice_2__u_slice___07_:2 0.474113
2 g_slice_2__u_slice___07_:2 g_slice_2__u_slice___08_:2 0.005276
3 g_slice_2__u_slice___07_:2 g_slice_2__u_slice__ff_q:2 0.005276
4 g_slice_2__u_slice___07_:2 lut_in\[9\]:2 0.009839
*RES
1 g_slice_2__u_slice___07_:1 g_slice_2__u_slice___07_:2 163.985800
2 g_slice_2__u_slice___07_:1 g_slice_2__u_slice___17_:B 0.000000
3 g_slice_2__u_slice___07_:1 g_slice_2__u_slice___16_:Y 0.000000
*END

*D_NET g_slice_2__u_slice___08_ 1.033699
*CONN
*I g_slice_2__u_slice___18_:B1 B
*I g_slice_2__u_slice___17_:Y B
*CAP
1 g_slice_2__u_slice___08_:2 1.019335
2 g_slice_2__u_slice___08_:2 g_slice_2__u_slice__ff_q:2 0.004048
3 g_slice_2__u_slice___08_:2 lut_in\[11\]:2 0.002624
4 g_slice_2__u_slice___08_:2 lut_in\[9\]:2 0.007692
*RES
1 g_slice_2__u_slice___08_:1 g_slice_2__u_slice___08_:2 177.268300
2 g_slice_2__u_slice___08_:1 g_slice_2__u_slice___18_:B1 0.000000
3 g_slice_2__u_slice___08_:1 g_slice_2__u_slice___17_:Y 0.000000
*END

*D_NET g_slice_2__u_slice__ff_q 1.611611
*CONN
*I g_slice_2__u_slice___19_:Q B
*I g_slice_2__u_slice___16_:A B
*I g_slice_2__u_slice___14_:A1 B
*CAP
1 g_slice_2__u_slice__ff_q:2 1.599429
2 g_slice_2__u_slice__ff_q:2 lut_in\[11\]:2 0.006934
3 g_slice_2__u_slice__ff_q:2 lut_in\[8\]:2 0.002624
4 g_slice_2__u_slice__ff_q:2 lut_in\[9\]:2 0.002624
*RES
1 g_slice_2__u_slice__ff_q:1 g_slice_2__u_slice__ff_q:2 205.311600
2 g_slice_2__u_slice__ff_q:1 g_slice_2__u_slice___19_:Q 0.000000
3 g_slice_2__u_slice__ff_q:1 g_slice_2__u_slice___16_:A 0.000000
4 g_slice_2__u_slice__ff_q:1 g_slice_2__u_slice___14_:A1 0.000000
*END

*D_NET g_slice_3__u_slice___00_ 0.963924
*CONN
*I g_slice_3__u_slice___19_:D B
*I g_slice_3__u_slice___18_:X B
*CAP
1 g_slice_3__u_slice___00_:2 0.940963
2 g_slice_3__u_slice___00_:2 lut_in\[4\]:2 0.004477
3 g_slice_3__u_slice___00_:2 lut_in\[5\]:2 0.003620
4 g_slice_3__u_slice___00_:2 lut_in\[6\]:2 0.011244
5 g_slice_3__u_slice___00_:2 lut_in\[8\]:2 0.003620
*RES
1 g_slice_3__u_slice___00_:1 g_slice_3__u_slice___00_:2 146.954200
2 g_slice_3__u_slice___00_:1 g_slice_3__u_slice___19_:D 0.000000
3 g_slice_3__u_slice___00_:1 g_slice_3__u_slice___18_:X 0.000000
*END

*D_NET g_slice_3__u_slice___01_ 0.986903
*CONN
*I g_slice_3__u_slice___13_:A0 B
*I g_slice_3__u_slice___09_:X B
*CAP
1 g_slice_3__u_slice___01_:2 0.939499
2 g_slice_3__u_slice___01_:2 s_in\[0\]:2 0.042062
3 g_slice_3__u_slice___01_:2 u_sm___065_:2 0.002624
4 g_slice_3__u_slice___01_:2 u_sm___067_:2 0.002718
*RES
1 g_slice_3__u_slice___01_:1 g_slice_3__u_slice___01_:2 179.553000
2 g_slice_3__u_slice___01_:1 g_slice_3__u_slice___13_:A0 0.000000
3 g_slice_3__u_slice___01_:1 g_slice_3__u_slice___09_:X 0.000000
*END

*D_NET g_slice_3__u_slice___02_ 1.314654
*CONN
*I g_slice_3__u_slice___13_:A1 B
*I g_slice_3__u_slice___10_:X B
*CAP
1 g_slice_3__u_slice___02_:2 1.308410
2 g_slice_3__u_slice___02_:2 lut_in\[15\]:2 0.002624
3 g_slice_3__u_slice___02_:2 u_sm___067_:2 0.003620
*RES
1 g_slice_3__u_slice___02_:1 g_slice_3__u_slice___02_:2 158.191400
2 g_slice_3__u_slice___02_:1 g_slice_3__u_slice___13_:A1 0.000000
3 g_slice_3__u_slice___02_:1 g_slice_3__u_slice___10_:X 0.000000
*END

*D_NET g_slice_3__u_slice___03_ 1.241671
*CONN
*I g_slice_3__u_slice___13_:A2 B
*I g_slice_3__u_slice___11_:X B
*CAP
1 g_slice_3__u_slice___03_:2 1.227645
2 g_slice_3__u_slice___03_:2 lut_in\[12\]:2 0.005247
3 g_slice_3__u_slice___03_:2 lut_in\[15\]:2 0.002624
4 g_slice_3__u_slice___03_:2 s_in\[0\]:2 0.003437
5 g_slice_3__u_slice___03_:2 w_in\[0\]:2 0.002718
*RES
1 g_slice_3__u_slice___03_:1 g_slice_3__u_slice___03_:2 177.659900
2 g_slice_3__u_slice___03_:1 g_slice_3__u_slice___13_:A2 0.000000
3 g_slice_3__u_slice___03_:1 g_slice_3__u_slice___11_:X 0.000000
*END

*D_NET g_slice_3__u_slice___04_ 0.850689
*CONN
*I g_slice_3__u_slice___13_:A3 B
*I g_slice_3__u_slice___12_:X B
*CAP
1 g_slice_3__u_slice___04_:2 0.836495
2 g_slice_3__u_slice___04_:2 lut_in\[14\]:2 0.007260
3 g_slice_3__u_slice___04_:2 lut_in\[15\]:2 0.002624
4 g_slice_3__u_slice___04_:2 u_sm___067_:2 0.004310
*RES
1 g_slice_3__u_slice___04_:1 g_slice_3__u_slice___04_:2 169.902200
2 g_slice_3__u_slice___04_:1 g_slice_3__u_slice___13_:A3 0.000000
3 g_slice_3__u_slice___04_:1 g_slice_3__u_slice___12_:X 0.000000
*END

*D_NET g_slice_3__u_slice___05_ 5.141049
*CONN
*I g_slice_3__u_slice___18_:A2 B
*I g_slice_3__u_slice___14_:A0 B
*I g_slice_3__u_slice___13_:X B
*CAP
1 g_slice_3__u_slice___05_:2 5.053689
2 g_slice_3__u_slice___05_:2 g_slice_3__u_slice___08_:2 0.002624
3 g_slice_3__u_slice___05_:2 lut_in\[11\]:2 0.003620
4 g_slice_3__u_slice___05_:2 lut_in\[4\]:2 0.006061
5 g_slice_3__u_slice___05_:2 lut_in\[5\]:2 0.003620
6 g_slice_3__u_slice___05_:2 lut_in\[6\]:2 0.002624
7 g_slice_3__u_slice___05_:2 lut_in\[7\]:2 0.004310
8 g_slice_3__u_slice___05_:2 lut_in\[8\]:2 0.003620
9 g_slice_3__u_slice___05_:2 lut_in\[9\]:2 0.003620
10 g_slice_3__u_slice___05_:2 n_in\[0\]:2 0.003620
11 g_slice_3__u_slice___05_:2 n_in\[1\]:2 0.006244
12 g_slice_3__u_slice___05_:2 n_in\[2\]:2 0.009839
13 g_slice_3__u_slice___05_:2 n_in\[3\]:2 0.002624
14 g_slice_3__u_slice___05_:2 s_in\[0\]:2 0.002718
15 g_slice_3__u_slice___05_:2 s_in\[1\]:2 0.003620
16 g_slice_3__u_slice___05_:2 s_in\[2\]:2 0.002624
17 g_slice_3__u_slice___05_:2 s_in\[3\]:2 0.003620
18 g_slice_3__u_slice___05_:2 u_sm___003_:2 0.003620
19 g_slice_3__u_slice___05_:2 u_sm___065_:2 0.002624
20 g_slice_3__u_slice___05_:2 u_sm___067_:2 0.002624
21 g_slice_3__u_slice___05_:2 w_in\[0\]:2 0.003620
22 g_slice_3__u_slice___05_:2 w_in\[1\]:2 0.003620
23 g_slice_3__u_slice___05_:2 w_in\[2\]:2 0.003620
24 g_slice_3__u_slice___05_:2 w_in\[3\]:2 0.002624
*RES
1 g_slice_3__u_slice___05_:1 g_slice_3__u_slice___05_:2 318.237400
2 g_slice_3__u_slice___05_:1 g_slice_3__u_slice___18_:A2 0.000000
3 g_slice_3__u_slice___05_:1 g_slice_3__u_slice___14_:A0 0.000000
4 g_slice_3__u_slice___05_:1 g_slice_3__u_slice___13_:X 0.000000
*END

*D_NET g_slice_3__u_slice___06_ 0.856598
*CONN
*I g_slice_3__u_slice___18_:A1 B
*I g_slice_3__u_slice___15_:Y B
*CAP
1 g_slice_3__u_slice___06_:2 0.840826
2 g_slice_3__u_slice___06_:2 g_slice_3__u_slice___07_:2 0.007900
3 g_slice_3__u_slice___06_:2 g_slice_3__u_slice__ff_q:2 0.002624
4 g_slice_3__u_slice___06_:2 lut_in\[4\]:2 0.002624
5 g_slice_3__u_slice___06_:2 w_in\[2\]:2 0.002624
*RES
1 g_slice_3__u_slice___06_:1 g_slice_3__u_slice___06_:2 135.278600
2 g_slice_3__u_slice___06_:1 g_slice_3__u_slice___18_:A1 0.000000
3 g_slice_3__u_slice___06_:1 g_slice_3__u_slice___15_:Y 0.000000
*END

*D_NET g_slice_3__u_slice___07_ 0.766994
*CONN
*I g_slice_3__u_slice___17_:B B
*I g_slice_3__u_slice___16_:Y B
*CAP
1 g_slice_3__u_slice___07_:2 0.753048
2 g_slice_3__u_slice___07_:2 g_slice_3__u_slice___08_:2 0.005048
3 g_slice_3__u_slice___07_:2 lut_in\[11\]:2 0.003137
4 g_slice_3__u_slice___07_:2 lut_in\[4\]:2 0.002624
5 g_slice_3__u_slice___07_:2 w_in\[2\]:2 0.003137
*RES
1 g_slice_3__u_slice___07_:1 g_slice_3__u_slice___07_:2 166.339000
2 g_slice_3__u_slice___07_:1 g_slice_3__u_slice___17_:B 0.000000
3 g_slice_3__u_slice___07_:1 g_slice_3__u_slice___16_:Y 0.000000
*END

*D_NET g_slice_3__u_slice___08_ 0.639231
*CONN
*I g_slice_3__u_slice___18_:B1 B
*I g_slice_3__u_slice___17_:Y B
*CAP
1 g_slice_3__u_slice___08_:2 0.633955
2 g_slice_3__u_slice___08_:2 lut_in\[4\]:2 0.005276
*RES
1 g_slice_3__u_slice___08_:1 g_slice_3__u_slice___08_:2 173.763400
2 g_slice_3__u_slice___08_:1 g_slice_3__u_slice___18_:B1 0.000000
3 g_slice_3__u_slice___08_:1 g_slice_3__u_slice___17_:Y 0.000000
*END

*D_NET g_slice_3__u_slice__ff_q 1.615726
*CONN
*I g_slice_3__u_slice___19_:Q B
*I g_slice_3__u_slice___16_:A B
*I g_slice_3__u_slice___14_:A1 B
*CAP
1 g_slice_3__u_slice__ff_q:2 1.575397
2 g_slice_3__u_slice__ff_q:2 lut_in\[11\]:2 0.003137
3 g_slice_3__u_slice__ff_q:2 lut_in\[4\]:2 0.002624
4 g_slice_3__u_slice__ff_q:2 lut_in\[5\]:2 0.003620
5 g_slice_3__u_slice__ff_q:2 lut_in\[6\]:2 0.002624
6 g_slice_3__u_slice__ff_q:2 lut_in\[7\]:2 0.014360
7 g_slice_3__u_slice__ff_q:2 lut_in\[8\]:2 0.005068
8 g_slice_3__u_slice__ff_q:2 u_sm___039_:2 0.005276
9 g_slice_3__u_slice__ff_q:2 w_in\[2\]:2 0.003620
*RES
1 g_slice_3__u_slice__ff_q:1 g_slice_3__u_slice__ff_q:2 205.215200
2 g_slice_3__u_slice__ff_q:1 g_slice_3__u_slice___19_:Q 0.000000
3 g_slice_3__u_slice__ff_q:1 g_slice_3__u_slice___16_:A 0.000000
4 g_slice_3__u_slice__ff_q:1 g_slice_3__u_slice___14_:A1 0.000000
*END

*D_NET lut_in\[0\] 6.006511
*CONN
*I u_sm___142_:X B
*I g_slice_0__u_slice___12_:S0 B
*I g_slice_0__u_slice___11_:S0 B
*I g_slice_0__u_slice___10_:S0 B
*I g_slice_0__u_slice___09_:S0 B
*CAP
1 lut_in\[0\]:2 5.944869
2 lut_in\[0\]:2 lut_in\[1\]:2 0.019202
3 lut_in\[0\]:2 lut_in\[2\]:2 0.002624
4 lut_in\[0\]:2 lut_in\[3\]:2 0.002624
5 lut_in\[0\]:2 lut_in\[5\]:2 0.005068
6 lut_in\[0\]:2 lut_in\[7\]:2 0.002624
7 lut_in\[0\]:2 lut_in\[8\]:2 0.005068
8 lut_in\[0\]:2 lut_in\[9\]:2 0.006244
9 lut_in\[0\]:2 n_in\[1\]:2 0.002624
10 lut_in\[0\]:2 n_in\[2\]:2 0.002624
11 lut_in\[0\]:2 n_in\[3\]:2 0.002624
12 lut_in\[0\]:2 w_in\[0\]:2 0.002624
13 lut_in\[0\]:2 w_in\[1\]:2 0.007692
*RES
1 lut_in\[0\]:1 lut_in\[0\]:2 617.254600
2 lut_in\[0\]:1 u_sm___142_:X 0.000000
3 lut_in\[0\]:1 g_slice_0__u_slice___12_:S0 0.000000
4 lut_in\[0\]:1 g_slice_0__u_slice___11_:S0 0.000000
5 lut_in\[0\]:1 g_slice_0__u_slice___10_:S0 0.000000
6 lut_in\[0\]:1 g_slice_0__u_slice___09_:S0 0.000000
*END

*D_NET lut_in\[10\] 8.204900
*CONN
*I u_sm___157_:X B
*I g_slice_2__u_slice___13_:S1 B
*CAP
1 lut_in\[10\]:2 8.069978
2 lut_in\[10\]:2 lut_in\[11\]:2 0.015758
3 lut_in\[10\]:2 lut_in\[8\]:2 0.022608
4 lut_in\[10\]:2 lut_in\[9\]:2 0.004310
5 lut_in\[10\]:2 n_in\[0\]:2 0.003137
6 lut_in\[10\]:2 n_in\[2\]:2 0.002718
7 lut_in\[10\]:2 n_out\[2\]:2 0.004217
8 lut_in\[10\]:2 n_out\[3\]:2 0.012039
9 lut_in\[10\]:2 s_in\[1\]:2 0.003620
10 lut_in\[10\]:2 s_in\[2\]:2 0.012904
11 lut_in\[10\]:2 s_in\[3\]:2 0.014320
12 lut_in\[10\]:2 u_sm___003_:2 0.002624
13 lut_in\[10\]:2 u_sm___005_:2 0.002624
14 lut_in\[10\]:2 u_sm___006_:2 0.002624
15 lut_in\[10\]:2 u_sm___008_:2 0.007057
16 lut_in\[10\]:2 u_sm___009_:2 0.002624
17 lut_in\[10\]:2 u_sm___010_:2 0.005276
18 lut_in\[10\]:2 u_sm___016_:2 0.003620
19 lut_in\[10\]:2 u_sm___021_:2 0.003620
20 lut_in\[10\]:2 w_in\[0\]:2 0.005602
21 lut_in\[10\]:2 w_in\[3\]:2 0.003620
*RES
1 lut_in\[10\]:1 lut_in\[10\]:2 188.508100
2 lut_in\[10\]:1 u_sm___157_:X 0.000000
3 lut_in\[10\]:1 g_slice_2__u_slice___13_:S1 0.000000
*END

*D_NET lut_in\[11\] 7.530249
*CONN
*I u_sm___158_:X B
*I g_slice_2__u_slice___13_:S0 B
*CAP
1 lut_in\[11\]:2 7.425828
2 lut_in\[11\]:2 lut_in\[4\]:2 0.006934
3 lut_in\[11\]:2 lut_in\[5\]:2 0.002624
4 lut_in\[11\]:2 lut_in\[6\]:2 0.008995
5 lut_in\[11\]:2 lut_in\[7\]:2 0.009839
6 lut_in\[11\]:2 lut_in\[8\]:2 0.005247
7 lut_in\[11\]:2 lut_in\[9\]:2 0.009864
8 lut_in\[11\]:2 n_in\[1\]:2 0.003620
9 lut_in\[11\]:2 n_in\[2\]:2 0.003620
10 lut_in\[11\]:2 n_in\[3\]:2 0.010555
11 lut_in\[11\]:2 s_out\[3\]:2 0.007777
12 lut_in\[11\]:2 u_sm___003_:2 0.003620
13 lut_in\[11\]:2 u_sm___038_:2 0.003620
14 lut_in\[11\]:2 u_sm___039_:2 0.003137
15 lut_in\[11\]:2 w_in\[0\]:2 0.003620
16 lut_in\[11\]:2 w_in\[2\]:2 0.007240
17 lut_in\[11\]:2 w_in\[3\]:2 0.014109
*RES
1 lut_in\[11\]:1 lut_in\[11\]:2 273.241600
2 lut_in\[11\]:1 u_sm___158_:X 0.000000
3 lut_in\[11\]:1 g_slice_2__u_slice___13_:S0 0.000000
*END

*D_NET lut_in\[12\] 4.637125
*CONN
*I u_sm___159_:X B
*I g_slice_3__u_slice___12_:S0 B
*I g_slice_3__u_slice___11_:S0 B
*I g_slice_3__u_slice___10_:S0 B
*I g_slice_3__u_slice___09_:S0 B
*CAP
1 lut_in\[12\]:2 4.594094
2 lut_in\[12\]:2 lut_in\[13\]:2 0.010495
3 lut_in\[12\]:2 lut_in\[14\]:2 0.004310
4 lut_in\[12\]:2 lut_in\[15\]:2 0.002624
5 lut_in\[12\]:2 n_in\[3\]:2 0.004310
6 lut_in\[12\]:2 s_in\[0\]:2 0.002624
7 lut_in\[12\]:2 s_in\[2\]:2 0.002718
8 lut_in\[12\]:2 u_sm___067_:2 0.004873
9 lut_in\[12\]:2 w_in\[0\]:2 0.011077
*RES
1 lut_in\[12\]:1 lut_in\[12\]:2 603.342700
2 lut_in\[12\]:1 u_sm___159_:X 0.000000
3 lut_in\[12\]:1 g_slice_3__u_slice___12_:S0 0.000000
4 lut_in\[12\]:1 g_slice_3__u_slice___11_:S0 0.000000
5 lut_in\[12\]:1 g_slice_3__u_slice___10_:S0 0.000000
6 lut_in\[12\]:1 g_slice_3__u_slice___09_:S0 0.000000
*END

*D_NET lut_in\[13\] 2.575044
*CONN
*I u_sm___160_:X B
*I g_slice_3__u_slice___12_:S1 B
*I g_slice_3__u_slice___11_:S1 B
*I g_slice_3__u_slice___10_:S1 B
*I g_slice_3__u_slice___09_:S1 B
*CAP
1 lut_in\[13\]:2 2.558210
2 lut_in\[13\]:2 lut_in\[15\]:2 0.002624
3 lut_in\[13\]:2 n_in\[0\]:2 0.003620
4 lut_in\[13\]:2 n_in\[1\]:2 0.002718
5 lut_in\[13\]:2 s_in\[0\]:2 0.002624
6 lut_in\[13\]:2 s_in\[2\]:2 0.002624
7 lut_in\[13\]:2 w_in\[0\]:2 0.002624
*RES
1 lut_in\[13\]:1 lut_in\[13\]:2 251.679200
2 lut_in\[13\]:1 u_sm___160_:X 0.000000
3 lut_in\[13\]:1 g_slice_3__u_slice___12_:S1 0.000000
4 lut_in\[13\]:1 g_slice_3__u_slice___11_:S1 0.000000
5 lut_in\[13\]:1 g_slice_3__u_slice___10_:S1 0.000000
6 lut_in\[13\]:1 g_slice_3__u_slice___09_:S1 0.000000
*END

*D_NET lut_in\[14\] 1.422977
*CONN
*I u_sm___166_:X B
*I g_slice_3__u_slice___13_:S1 B
*CAP
1 lut_in\[14\]:2 1.388893
2 lut_in\[14\]:2 n_in\[0\]:2 0.003620
3 lut_in\[14\]:2 n_in\[1\]:2 0.002624
4 lut_in\[14\]:2 n_in\[2\]:2 0.007965
5 lut_in\[14\]:2 s_in\[0\]:2 0.002624
6 lut_in\[14\]:2 s_in\[1\]:2 0.012003
7 lut_in\[14\]:2 s_in\[2\]:2 0.002624
8 lut_in\[14\]:2 u_sm___067_:2 0.002624
*RES
1 lut_in\[14\]:1 lut_in\[14\]:2 162.653800
2 lut_in\[14\]:1 u_sm___166_:X 0.000000
3 lut_in\[14\]:1 g_slice_3__u_slice___13_:S1 0.000000
*END

*D_NET lut_in\[15\] 1.146328
*CONN
*I u_sm___167_:X B
*I g_slice_3__u_slice___13_:S0 B
*CAP
1 lut_in\[15\]:2 1.133536
2 lut_in\[15\]:2 s_in\[0\]:2 0.005858
3 lut_in\[15\]:2 u_sm___065_:2 0.004310
4 lut_in\[15\]:2 u_sm___067_:2 0.002624
*RES
1 lut_in\[15\]:1 lut_in\[15\]:2 242.475500
2 lut_in\[15\]:1 u_sm___167_:X 0.000000
3 lut_in\[15\]:1 g_slice_3__u_slice___13_:S0 0.000000
*END

*D_NET lut_in\[1\] 4.007557
*CONN
*I u_sm___143_:X B
*I g_slice_0__u_slice___12_:S1 B
*I g_slice_0__u_slice___11_:S1 B
*I g_slice_0__u_slice___10_:S1 B
*I g_slice_0__u_slice___09_:S1 B
*CAP
1 lut_in\[1\]:2 3.967226
2 lut_in\[1\]:2 lut_in\[2\]:2 0.002624
3 lut_in\[1\]:2 lut_in\[3\]:2 0.002624
4 lut_in\[1\]:2 lut_in\[5\]:2 0.003620
5 lut_in\[1\]:2 lut_in\[6\]:2 0.003137
6 lut_in\[1\]:2 lut_in\[7\]:2 0.002624
7 lut_in\[1\]:2 lut_in\[8\]:2 0.003620
8 lut_in\[1\]:2 lut_in\[9\]:2 0.006244
9 lut_in\[1\]:2 n_in\[1\]:2 0.005342
10 lut_in\[1\]:2 n_in\[2\]:2 0.002624
11 lut_in\[1\]:2 n_in\[3\]:2 0.002624
12 lut_in\[1\]:2 w_in\[0\]:2 0.002624
13 lut_in\[1\]:2 w_in\[1\]:2 0.002624
*RES
1 lut_in\[1\]:1 lut_in\[1\]:2 265.488200
2 lut_in\[1\]:1 u_sm___143_:X 0.000000
3 lut_in\[1\]:1 g_slice_0__u_slice___12_:S1 0.000000
4 lut_in\[1\]:1 g_slice_0__u_slice___11_:S1 0.000000
5 lut_in\[1\]:1 g_slice_0__u_slice___10_:S1 0.000000
6 lut_in\[1\]:1 g_slice_0__u_slice___09_:S1 0.000000
*END

*D_NET lut_in\[2\] 2.001868
*CONN
*I u_sm___144_:X B
*I g_slice_0__u_slice___13_:S1 B
*CAP
1 lut_in\[2\]:2 1.983472
2 lut_in\[2\]:2 lut_in\[3\]:2 0.002624
3 lut_in\[2\]:2 lut_in\[9\]:2 0.002624
4 lut_in\[2\]:2 n_in\[2\]:2 0.005276
5 lut_in\[2\]:2 n_in\[3\]:2 0.002624
6 lut_in\[2\]:2 s_in\[3\]:2 0.002624
7 lut_in\[2\]:2 w_in\[3\]:2 0.002624
*RES
1 lut_in\[2\]:1 lut_in\[2\]:2 168.302400
2 lut_in\[2\]:1 u_sm___144_:X 0.000000
3 lut_in\[2\]:1 g_slice_0__u_slice___13_:S1 0.000000
*END

*D_NET lut_in\[3\] 2.209922
*CONN
*I u_sm___145_:X B
*I g_slice_0__u_slice___13_:S0 B
*CAP
1 lut_in\[3\]:2 2.179070
2 lut_in\[3\]:2 lut_in\[9\]:2 0.002624
3 lut_in\[3\]:2 n_in\[1\]:2 0.009839
4 lut_in\[3\]:2 n_in\[3\]:2 0.007900
5 lut_in\[3\]:2 s_in\[3\]:2 0.007865
6 lut_in\[3\]:2 w_in\[3\]:2 0.002624
*RES
1 lut_in\[3\]:1 lut_in\[3\]:2 253.562300
2 lut_in\[3\]:1 u_sm___145_:X 0.000000
3 lut_in\[3\]:1 g_slice_0__u_slice___13_:S0 0.000000
*END

*D_NET lut_in\[4\] 7.806239
*CONN
*I u_sm___146_:X B
*I g_slice_1__u_slice___12_:S0 B
*I g_slice_1__u_slice___11_:S0 B
*I g_slice_1__u_slice___10_:S0 B
*I g_slice_1__u_slice___09_:S0 B
*CAP
1 lut_in\[4\]:2 7.749480
2 lut_in\[4\]:2 lut_in\[5\]:2 0.015742
3 lut_in\[4\]:2 lut_in\[7\]:2 0.002624
4 lut_in\[4\]:2 n_in\[2\]:2 0.002624
5 lut_in\[4\]:2 n_out\[3\]:2 0.005501
6 lut_in\[4\]:2 s_out\[2\]:2 0.003186
7 lut_in\[4\]:2 u_sm___003_:2 0.002624
8 lut_in\[4\]:2 u_sm___036_:2 0.002624
9 lut_in\[4\]:2 u_sm___038_:2 0.002624
10 lut_in\[4\]:2 u_sm___039_:2 0.002624
11 lut_in\[4\]:2 w_in\[0\]:2 0.002624
12 lut_in\[4\]:2 w_in\[2\]:2 0.013962
*RES
1 lut_in\[4\]:1 lut_in\[4\]:2 637.187300
2 lut_in\[4\]:1 u_sm___146_:X 0.000000
3 lut_in\[4\]:1 g_slice_1__u_slice___12_:S0 0.000000
4 lut_in\[4\]:1 g_slice_1__u_slice___11_:S0 0.000000
5 lut_in\[4\]:1 g_slice_1__u_slice___10_:S0 0.000000
6 lut_in\[4\]:1 g_slice_1__u_slice___09_:S0 0.000000
*END

*D_NET lut_in\[5\] 7.128281
*CONN
*I u_sm___147_:X B
*I g_slice_1__u_slice___12_:S1 B
*I g_slice_1__u_slice___11_:S1 B
*I g_slice_1__u_slice___10_:S1 B
*I g_slice_1__u_slice___09_:S1 B
*CAP
1 lut_in\[5\]:2 7.085149
2 lut_in\[5\]:2 lut_in\[6\]:2 0.002624
3 lut_in\[5\]:2 lut_in\[7\]:2 0.002624
4 lut_in\[5\]:2 lut_in\[8\]:2 0.004310
5 lut_in\[5\]:2 lut_in\[9\]:2 0.002624
6 lut_in\[5\]:2 n_in\[1\]:2 0.005342
7 lut_in\[5\]:2 n_in\[2\]:2 0.002624
8 lut_in\[5\]:2 n_in\[3\]:2 0.002624
9 lut_in\[5\]:2 u_sm___036_:2 0.002624
10 lut_in\[5\]:2 u_sm___037_:2 0.002624
11 lut_in\[5\]:2 u_sm___038_:2 0.002624
12 lut_in\[5\]:2 u_sm___039_:2 0.002624
13 lut_in\[5\]:2 w_in\[0\]:2 0.003620
14 lut_in\[5\]:2 w_in\[2\]:2 0.003620
15 lut_in\[5\]:2 w_in\[3\]:2 0.002624
*RES
1 lut_in\[5\]:1 lut_in\[5\]:2 278.350800
2 lut_in\[5\]:1 u_sm___147_:X 0.000000
3 lut_in\[5\]:1 g_slice_1__u_slice___12_:S1 0.000000
4 lut_in\[5\]:1 g_slice_1__u_slice___11_:S1 0.000000
5 lut_in\[5\]:1 g_slice_1__u_slice___10_:S1 0.000000
6 lut_in\[5\]:1 g_slice_1__u_slice___09_:S1 0.000000
*END

*D_NET lut_in\[6\] 5.109453
*CONN
*I u_sm___153_:X B
*I g_slice_1__u_slice___13_:S1 B
*CAP
1 lut_in\[6\]:2 5.061092
2 lut_in\[6\]:2 lut_in\[7\]:2 0.004796
3 lut_in\[6\]:2 lut_in\[8\]:2 0.004310
4 lut_in\[6\]:2 lut_in\[9\]:2 0.002624
5 lut_in\[6\]:2 n_in\[1\]:2 0.002624
6 lut_in\[6\]:2 n_in\[2\]:2 0.004956
7 lut_in\[6\]:2 n_in\[3\]:2 0.002624
8 lut_in\[6\]:2 u_sm___036_:2 0.005342
9 lut_in\[6\]:2 u_sm___037_:2 0.002624
10 lut_in\[6\]:2 u_sm___038_:2 0.002624
11 lut_in\[6\]:2 u_sm___039_:2 0.002624
12 lut_in\[6\]:2 w_in\[0\]:2 0.002624
13 lut_in\[6\]:2 w_in\[2\]:2 0.007965
14 lut_in\[6\]:2 w_in\[3\]:2 0.002624
*RES
1 lut_in\[6\]:1 lut_in\[6\]:2 196.437600
2 lut_in\[6\]:1 u_sm___153_:X 0.000000
3 lut_in\[6\]:1 g_slice_1__u_slice___13_:S1 0.000000
*END

*D_NET lut_in\[7\] 5.199996
*CONN
*I u_sm___154_:X B
*I g_slice_1__u_slice___13_:S0 B
*CAP
1 lut_in\[7\]:2 5.181808
2 lut_in\[7\]:2 lut_in\[8\]:2 0.005068
3 lut_in\[7\]:2 u_sm___037_:2 0.002624
4 lut_in\[7\]:2 u_sm___038_:2 0.002624
5 lut_in\[7\]:2 u_sm___039_:2 0.002624
6 lut_in\[7\]:2 w_in\[0\]:2 0.002624
7 lut_in\[7\]:2 w_in\[2\]:2 0.002624
*RES
1 lut_in\[7\]:1 lut_in\[7\]:2 284.358400
2 lut_in\[7\]:1 u_sm___154_:X 0.000000
3 lut_in\[7\]:1 g_slice_1__u_slice___13_:S0 0.000000
*END

*D_NET lut_in\[8\] 10.641431
*CONN
*I u_sm___155_:X B
*I g_slice_2__u_slice___12_:S0 B
*I g_slice_2__u_slice___11_:S0 B
*I g_slice_2__u_slice___10_:S0 B
*I g_slice_2__u_slice___09_:S0 B
*CAP
1 lut_in\[8\]:2 10.585986
2 lut_in\[8\]:2 lut_in\[9\]:2 0.018425
3 lut_in\[8\]:2 n_in\[0\]:2 0.002718
4 lut_in\[8\]:2 n_in\[1\]:2 0.003620
5 lut_in\[8\]:2 n_in\[3\]:2 0.003620
6 lut_in\[8\]:2 s_in\[0\]:2 0.002718
7 lut_in\[8\]:2 u_sm___037_:2 0.003620
8 lut_in\[8\]:2 u_sm___038_:2 0.003620
9 lut_in\[8\]:2 u_sm___039_:2 0.003620
10 lut_in\[8\]:2 w_in\[0\]:2 0.003620
11 lut_in\[8\]:2 w_in\[2\]:2 0.006244
12 lut_in\[8\]:2 w_in\[3\]:2 0.003620
*RES
1 lut_in\[8\]:1 lut_in\[8\]:2 632.974600
2 lut_in\[8\]:1 u_sm___155_:X 0.000000
3 lut_in\[8\]:1 g_slice_2__u_slice___12_:S0 0.000000
4 lut_in\[8\]:1 g_slice_2__u_slice___11_:S0 0.000000
5 lut_in\[8\]:1 g_slice_2__u_slice___10_:S0 0.000000
6 lut_in\[8\]:1 g_slice_2__u_slice___09_:S0 0.000000
*END

*D_NET lut_in\[9\] 8.603582
*CONN
*I u_sm___156_:X B
*I g_slice_2__u_slice___12_:S1 B
*I g_slice_2__u_slice___11_:S1 B
*I g_slice_2__u_slice___10_:S1 B
*I g_slice_2__u_slice___09_:S1 B
*CAP
1 lut_in\[9\]:2 8.551793
2 lut_in\[9\]:2 n_in\[0\]:2 0.002624
3 lut_in\[9\]:2 n_in\[1\]:2 0.002718
4 lut_in\[9\]:2 n_in\[3\]:2 0.021651
5 lut_in\[9\]:2 u_sm___052_:2 0.005068
6 lut_in\[9\]:2 w_in\[0\]:2 0.003620
7 lut_in\[9\]:2 w_in\[1\]:2 0.007240
8 lut_in\[9\]:2 w_in\[2\]:2 0.006244
9 lut_in\[9\]:2 w_in\[3\]:2 0.002624
*RES
1 lut_in\[9\]:1 lut_in\[9\]:2 281.326500
2 lut_in\[9\]:1 u_sm___156_:X 0.000000
3 lut_in\[9\]:1 g_slice_2__u_slice___12_:S1 0.000000
4 lut_in\[9\]:1 g_slice_2__u_slice___11_:S1 0.000000
5 lut_in\[9\]:1 g_slice_2__u_slice___10_:S1 0.000000
6 lut_in\[9\]:1 g_slice_2__u_slice___09_:S1 0.000000
*END

*D_NET n_in\[0\] 14.430990
*CONN
*P n_in\[0\] B
*I u_sm___169_:A0 B
*I u_sm___168_:A0 B
*I u_sm___159_:A0 B
*I u_sm___155_:A0 B
*I u_sm___146_:A0 B
*I u_sm___142_:A0 B
*I u_sm___122_:A0 B
*I u_sm___102_:A0 B
*I u_sm___082_:A0 B
*CAP
1 n_in\[0\]:2 14.033629
2 n_in\[0\]:2 n_in\[1\]:2 0.014174
3 n_in\[0\]:2 n_in\[2\]:2 0.023316
4 n_in\[0\]:2 n_in\[3\]:2 0.015673
5 n_in\[0\]:2 n_out\[0\]:2 0.002624
6 n_in\[0\]:2 n_out\[1\]:2 0.002624
7 n_in\[0\]:2 n_out\[2\]:2 0.011183
8 n_in\[0\]:2 n_out\[3\]:2 0.011550
9 n_in\[0\]:2 s_in\[0\]:2 0.037286
10 n_in\[0\]:2 s_in\[1\]:2 0.017735
11 n_in\[0\]:2 s_in\[2\]:2 0.026132
12 n_in\[0\]:2 s_in\[3\]:2 0.014115
13 n_in\[0\]:2 s_out\[0\]:2 0.006934
14 n_in\[0\]:2 s_out\[1\]:2 0.003620
15 n_in\[0\]:2 s_out\[3\]:2 0.011183
16 n_in\[0\]:2 u_sm___003_:2 0.003620
17 n_in\[0\]:2 u_sm___005_:2 0.003137
18 n_in\[0\]:2 u_sm___006_:2 0.003620
19 n_in\[0\]:2 u_sm___008_:2 0.002624
20 n_in\[0\]:2 u_sm___009_:2 0.003620
21 n_in\[0\]:2 u_sm___010_:2 0.003620
22 n_in\[0\]:2 u_sm___011_:2 0.007563
23 n_in\[0\]:2 u_sm___012_:2 0.002718
24 n_in\[0\]:2 u_sm___016_:2 0.002624
25 n_in\[0\]:2 u_sm___021_:2 0.002624
26 n_in\[0\]:2 u_sm___024_:2 0.003620
27 n_in\[0\]:2 u_sm___025_:2 0.008699
28 n_in\[0\]:2 u_sm___027_:2 0.022306
29 n_in\[0\]:2 u_sm___028_:2 0.011462
30 n_in\[0\]:2 u_sm___029_:2 0.003620
31 n_in\[0\]:2 u_sm___032_:2 0.005068
32 n_in\[0\]:2 u_sm___034_:2 0.003620
33 n_in\[0\]:2 u_sm___035_:2 0.003620
34 n_in\[0\]:2 u_sm___044_:2 0.004956
35 n_in\[0\]:2 u_sm___059_:2 0.015367
36 n_in\[0\]:2 w_in\[0\]:2 0.025619
37 n_in\[0\]:2 w_in\[1\]:2 0.031038
38 n_in\[0\]:2 w_in\[2\]:2 0.010204
39 n_in\[0\]:2 w_in\[3\]:2 0.014243
*RES
1 n_in[0] n_in\[0\]:2 540.924700
2 n_in[0] u_sm___169_:A0 0.000000
3 n_in[0] u_sm___168_:A0 0.000000
4 n_in[0] u_sm___159_:A0 0.000000
5 n_in[0] u_sm___155_:A0 0.000000
6 n_in[0] u_sm___146_:A0 0.000000
7 n_in[0] u_sm___142_:A0 0.000000
8 n_in[0] u_sm___122_:A0 0.000000
9 n_in[0] u_sm___102_:A0 0.000000
10 n_in[0] u_sm___082_:A0 0.000000
*END

*D_NET n_in\[1\] 13.764162
*CONN
*P n_in\[1\] B
*I u_sm___170_:A0 B
*I u_sm___160_:A0 B
*I u_sm___156_:A0 B
*I u_sm___147_:A0 B
*I u_sm___143_:A0 B
*I u_sm___127_:A0 B
*I u_sm___107_:A0 B
*I u_sm___087_:A0 B
*CAP
1 n_in\[1\]:2 13.515145
2 n_in\[1\]:2 n_in\[2\]:2 0.029943
3 n_in\[1\]:2 n_in\[3\]:2 0.024609
4 n_in\[1\]:2 n_out\[0\]:2 0.002624
5 n_in\[1\]:2 n_out\[1\]:2 0.002624
6 n_in\[1\]:2 n_out\[2\]:2 0.009056
7 n_in\[1\]:2 n_out\[3\]:2 0.006244
8 n_in\[1\]:2 s_in\[0\]:2 0.003620
9 n_in\[1\]:2 s_in\[1\]:2 0.007240
10 n_in\[1\]:2 s_in\[2\]:2 0.012615
11 n_in\[1\]:2 s_in\[3\]:2 0.026068
12 n_in\[1\]:2 s_out\[1\]:2 0.002624
13 n_in\[1\]:2 s_out\[3\]:2 0.003620
14 n_in\[1\]:2 u_sm___001_:2 0.002624
15 n_in\[1\]:2 u_sm___003_:2 0.002624
16 n_in\[1\]:2 u_sm___005_:2 0.011112
17 n_in\[1\]:2 u_sm___016_:2 0.007674
18 n_in\[1\]:2 u_sm___021_:2 0.003997
19 n_in\[1\]:2 u_sm___029_:2 0.002624
20 n_in\[1\]:2 u_sm___031_:2 0.002624
21 n_in\[1\]:2 u_sm___032_:2 0.007900
22 n_in\[1\]:2 u_sm___035_:2 0.009839
23 n_in\[1\]:2 u_sm___048_:2 0.005276
24 n_in\[1\]:2 u_sm___052_:2 0.002624
25 n_in\[1\]:2 u_sm___053_:2 0.002624
26 n_in\[1\]:2 u_sm___054_:2 0.008995
27 n_in\[1\]:2 u_sm___055_:2 0.002624
28 n_in\[1\]:2 w_in\[0\]:2 0.008867
29 n_in\[1\]:2 w_in\[1\]:2 0.009864
30 n_in\[1\]:2 w_in\[2\]:2 0.010495
31 n_in\[1\]:2 w_in\[3\]:2 0.010495
32 n_in\[1\]:2 w_out\[2\]:2 0.002624
33 n_in\[1\]:2 w_out\[3\]:2 0.002624
*RES
1 n_in[1] n_in\[1\]:2 525.752500
2 n_in[1] u_sm___170_:A0 0.000000
3 n_in[1] u_sm___160_:A0 0.000000
4 n_in[1] u_sm___156_:A0 0.000000
5 n_in[1] u_sm___147_:A0 0.000000
6 n_in[1] u_sm___143_:A0 0.000000
7 n_in[1] u_sm___127_:A0 0.000000
8 n_in[1] u_sm___107_:A0 0.000000
9 n_in[1] u_sm___087_:A0 0.000000
*END

*D_NET n_in\[2\] 14.567038
*CONN
*P n_in\[2\] B
*I u_sm___171_:A0 B
*I u_sm___166_:A0 B
*I u_sm___157_:A0 B
*I u_sm___153_:A0 B
*I u_sm___144_:A0 B
*I u_sm___132_:A0 B
*I u_sm___112_:A0 B
*I u_sm___092_:A0 B
*CAP
1 n_in\[2\]:2 14.282826
2 n_in\[2\]:2 n_in\[3\]:2 0.008867
3 n_in\[2\]:2 n_out\[0\]:2 0.002624
4 n_in\[2\]:2 n_out\[1\]:2 0.002624
5 n_in\[2\]:2 n_out\[2\]:2 0.013165
6 n_in\[2\]:2 n_out\[3\]:2 0.010554
7 n_in\[2\]:2 s_in\[0\]:2 0.009864
8 n_in\[2\]:2 s_in\[1\]:2 0.018440
9 n_in\[2\]:2 s_in\[2\]:2 0.028444
10 n_in\[2\]:2 s_in\[3\]:2 0.022141
11 n_in\[2\]:2 s_out\[2\]:2 0.002624
12 n_in\[2\]:2 s_out\[3\]:2 0.003620
13 n_in\[2\]:2 u_sm___009_:2 0.003620
14 n_in\[2\]:2 u_sm___010_:2 0.003620
15 n_in\[2\]:2 u_sm___011_:2 0.007563
16 n_in\[2\]:2 u_sm___012_:2 0.003620
17 n_in\[2\]:2 u_sm___016_:2 0.003620
18 n_in\[2\]:2 u_sm___020_:2 0.002718
19 n_in\[2\]:2 u_sm___021_:2 0.003137
20 n_in\[2\]:2 u_sm___022_:2 0.010700
21 n_in\[2\]:2 u_sm___023_:2 0.003620
22 n_in\[2\]:2 u_sm___024_:2 0.003620
23 n_in\[2\]:2 u_sm___025_:2 0.003620
24 n_in\[2\]:2 u_sm___030_:2 0.007871
25 n_in\[2\]:2 u_sm___031_:2 0.003186
26 n_in\[2\]:2 u_sm___032_:2 0.003620
27 n_in\[2\]:2 u_sm___036_:2 0.007900
28 n_in\[2\]:2 u_sm___038_:2 0.004310
29 n_in\[2\]:2 u_sm___039_:2 0.002624
30 n_in\[2\]:2 u_sm___061_:2 0.005068
31 n_in\[2\]:2 u_sm___062_:2 0.003137
32 n_in\[2\]:2 u_sm___065_:2 0.002624
33 n_in\[2\]:2 u_sm___066_:2 0.005527
34 n_in\[2\]:2 w_in\[0\]:2 0.015928
35 n_in\[2\]:2 w_in\[1\]:2 0.024549
36 n_in\[2\]:2 w_in\[2\]:2 0.019199
37 n_in\[2\]:2 w_in\[3\]:2 0.006244
*RES
1 n_in[2] n_in\[2\]:2 493.785900
2 n_in[2] u_sm___171_:A0 0.000000
3 n_in[2] u_sm___166_:A0 0.000000
4 n_in[2] u_sm___157_:A0 0.000000
5 n_in[2] u_sm___153_:A0 0.000000
6 n_in[2] u_sm___144_:A0 0.000000
7 n_in[2] u_sm___132_:A0 0.000000
8 n_in[2] u_sm___112_:A0 0.000000
9 n_in[2] u_sm___092_:A0 0.000000
*END

*D_NET n_in\[3\] 15.308986
*CONN
*P n_in\[3\] B
*I u_sm___172_:A0 B
*I u_sm___167_:A0 B
*I u_sm___158_:A0 B
*I u_sm___154_:A0 B
*I u_sm___145_:A0 B
*I u_sm___137_:A0 B
*I u_sm___117_:A0 B
*I u_sm___097_:A0 B
*CAP
1 n_in\[3\]:2 15.048436
2 n_in\[3\]:2 n_out\[0\]:2 0.002624
3 n_in\[3\]:2 n_out\[1\]:2 0.002624
4 n_in\[3\]:2 n_out\[2\]:2 0.008097
5 n_in\[3\]:2 n_out\[3\]:2 0.010136
6 n_in\[3\]:2 s_in\[0\]:2 0.013824
7 n_in\[3\]:2 s_in\[1\]:2 0.012487
8 n_in\[3\]:2 s_in\[2\]:2 0.012487
9 n_in\[3\]:2 s_in\[3\]:2 0.021064
10 n_in\[3\]:2 s_out\[3\]:2 0.003620
11 n_in\[3\]:2 u_sm___001_:2 0.023302
12 n_in\[3\]:2 u_sm___003_:2 0.002624
13 n_in\[3\]:2 u_sm___005_:2 0.005276
14 n_in\[3\]:2 u_sm___006_:2 0.002624
15 n_in\[3\]:2 u_sm___009_:2 0.002624
16 n_in\[3\]:2 u_sm___016_:2 0.006555
17 n_in\[3\]:2 u_sm___024_:2 0.011628
18 n_in\[3\]:2 u_sm___029_:2 0.003620
19 n_in\[3\]:2 u_sm___030_:2 0.002624
20 n_in\[3\]:2 u_sm___031_:2 0.002624
21 n_in\[3\]:2 u_sm___040_:2 0.002718
22 n_in\[3\]:2 u_sm___043_:2 0.004310
23 n_in\[3\]:2 u_sm___052_:2 0.002624
24 n_in\[3\]:2 u_sm___053_:2 0.005247
25 n_in\[3\]:2 u_sm___054_:2 0.005247
26 n_in\[3\]:2 u_sm___055_:2 0.005247
27 n_in\[3\]:2 u_sm___056_:2 0.007674
28 n_in\[3\]:2 w_in\[0\]:2 0.020418
29 n_in\[3\]:2 w_in\[1\]:2 0.022783
30 n_in\[3\]:2 w_in\[2\]:2 0.010495
31 n_in\[3\]:2 w_in\[3\]:2 0.012827
32 n_in\[3\]:2 w_out\[0\]:2 0.002624
33 n_in\[3\]:2 w_out\[1\]:2 0.002624
34 n_in\[3\]:2 w_out\[2\]:2 0.002624
35 n_in\[3\]:2 w_out\[3\]:2 0.002624
*RES
1 n_in[3] n_in\[3\]:2 535.848400
2 n_in[3] u_sm___172_:A0 0.000000
3 n_in[3] u_sm___167_:A0 0.000000
4 n_in[3] u_sm___158_:A0 0.000000
5 n_in[3] u_sm___154_:A0 0.000000
6 n_in[3] u_sm___145_:A0 0.000000
7 n_in[3] u_sm___137_:A0 0.000000
8 n_in[3] u_sm___117_:A0 0.000000
9 n_in[3] u_sm___097_:A0 0.000000
*END

*D_NET n_out\[0\] 4.482384
*CONN
*P n_out\[0\] B
*I u_sm___165_:X B
*CAP
1 n_out\[0\]:2 4.458516
2 n_out\[0\]:2 n_out\[2\]:2 0.003620
3 n_out\[0\]:2 s_out\[3\]:2 0.003620
4 n_out\[0\]:2 u_sm___066_:2 0.008314
5 n_out\[0\]:2 u_sm___067_:2 0.008314
*RES
1 n_out[0] n_out\[0\]:2 142.000800
2 n_out[0] u_sm___165_:X 0.000000
*END

*D_NET n_out\[1\] 4.418481
*CONN
*P n_out\[1\] B
*I u_sm___152_:X B
*CAP
1 n_out\[1\]:2 4.394582
2 n_out\[1\]:2 n_out\[2\]:2 0.003620
3 n_out\[1\]:2 s_in\[0\]:2 0.002624
4 n_out\[1\]:2 s_in\[1\]:2 0.002624
5 n_out\[1\]:2 s_out\[3\]:2 0.003620
6 n_out\[1\]:2 u_sm___061_:2 0.004310
7 n_out\[1\]:2 u_sm___063_:2 0.004477
8 n_out\[1\]:2 u_sm___064_:2 0.002624
*RES
1 n_out[1] n_out\[1\]:2 141.284700
2 n_out[1] u_sm___152_:X 0.000000
*END

*D_NET n_out\[2\] 5.546216
*CONN
*P n_out\[2\] B
*I u_sm___075_:X B
*CAP
1 n_out\[2\]:2 5.525654
2 n_out\[2\]:2 s_out\[3\]:2 0.007563
3 n_out\[2\]:2 w_in\[1\]:2 0.007563
4 n_out\[2\]:2 w_in\[3\]:2 0.005436
*RES
1 n_out[2] n_out\[2\]:2 110.282800
2 n_out[2] u_sm___075_:X 0.000000
*END

*D_NET n_out\[3\] 5.520951
*CONN
*P n_out\[3\] B
*I u_sm___081_:X B
*CAP
1 n_out\[3\]:2 5.396458
2 n_out\[3\]:2 s_in\[0\]:2 0.002624
3 n_out\[3\]:2 s_in\[1\]:2 0.007240
4 n_out\[3\]:2 s_in\[2\]:2 0.011183
5 n_out\[3\]:2 s_in\[3\]:2 0.010860
6 n_out\[3\]:2 s_out\[0\]:2 0.002624
7 n_out\[3\]:2 s_out\[1\]:2 0.002624
8 n_out\[3\]:2 s_out\[2\]:2 0.011794
9 n_out\[3\]:2 s_out\[3\]:2 0.003620
10 n_out\[3\]:2 u_sm___008_:2 0.003437
11 n_out\[3\]:2 u_sm___009_:2 0.021270
12 n_out\[3\]:2 u_sm___010_:2 0.009056
13 n_out\[3\]:2 u_sm___028_:2 0.019677
14 n_out\[3\]:2 w_in\[0\]:2 0.011244
15 n_out\[3\]:2 w_in\[2\]:2 0.003620
16 n_out\[3\]:2 w_in\[3\]:2 0.003620
*RES
1 n_out[3] n_out\[3\]:2 139.973800
2 n_out[3] u_sm___081_:X 0.000000
*END

*D_NET s_in\[0\] 15.994012
*CONN
*P s_in\[0\] B
*I u_sm___169_:A2 B
*I u_sm___168_:A2 B
*I u_sm___161_:A1 B
*I u_sm___159_:A2 B
*I u_sm___155_:A2 B
*I u_sm___146_:A2 B
*I u_sm___142_:A2 B
*I u_sm___123_:A0 B
*I u_sm___082_:A1 B
*CAP
1 s_in\[0\]:2 15.686114
2 s_in\[0\]:2 s_in\[1\]:2 0.021108
3 s_in\[0\]:2 s_in\[2\]:2 0.029990
4 s_in\[0\]:2 s_in\[3\]:2 0.017488
5 s_in\[0\]:2 s_out\[1\]:2 0.007871
6 s_in\[0\]:2 u_sm___008_:2 0.002624
7 s_in\[0\]:2 u_sm___012_:2 0.003620
8 s_in\[0\]:2 u_sm___015_:2 0.002624
9 s_in\[0\]:2 u_sm___016_:2 0.003620
10 s_in\[0\]:2 u_sm___017_:2 0.003620
11 s_in\[0\]:2 u_sm___022_:2 0.007563
12 s_in\[0\]:2 u_sm___023_:2 0.003620
13 s_in\[0\]:2 u_sm___024_:2 0.003620
14 s_in\[0\]:2 u_sm___026_:2 0.003620
15 s_in\[0\]:2 u_sm___027_:2 0.003620
16 s_in\[0\]:2 u_sm___029_:2 0.003620
17 s_in\[0\]:2 u_sm___031_:2 0.015367
18 s_in\[0\]:2 u_sm___032_:2 0.003620
19 s_in\[0\]:2 u_sm___033_:2 0.009171
20 s_in\[0\]:2 u_sm___034_:2 0.003620
21 s_in\[0\]:2 u_sm___035_:2 0.005068
22 s_in\[0\]:2 u_sm___045_:2 0.008285
23 s_in\[0\]:2 u_sm___047_:2 0.009839
24 s_in\[0\]:2 u_sm___049_:2 0.004310
25 s_in\[0\]:2 u_sm___050_:2 0.009013
26 s_in\[0\]:2 u_sm___051_:2 0.002624
27 s_in\[0\]:2 u_sm___058_:2 0.005247
28 s_in\[0\]:2 u_sm___061_:2 0.002624
29 s_in\[0\]:2 u_sm___063_:2 0.003620
30 s_in\[0\]:2 u_sm___064_:2 0.005342
31 s_in\[0\]:2 u_sm___065_:2 0.002624
32 s_in\[0\]:2 u_sm___066_:2 0.002624
33 s_in\[0\]:2 u_sm___067_:2 0.002624
34 s_in\[0\]:2 w_in\[0\]:2 0.041901
35 s_in\[0\]:2 w_in\[1\]:2 0.022733
36 s_in\[0\]:2 w_in\[2\]:2 0.012487
37 s_in\[0\]:2 w_in\[3\]:2 0.005247
38 s_in\[0\]:2 w_out\[0\]:2 0.002624
39 s_in\[0\]:2 w_out\[1\]:2 0.009056
*RES
1 s_in[0] s_in\[0\]:2 458.831100
2 s_in[0] u_sm___169_:A2 0.000000
3 s_in[0] u_sm___168_:A2 0.000000
4 s_in[0] u_sm___161_:A1 0.000000
5 s_in[0] u_sm___159_:A2 0.000000
6 s_in[0] u_sm___155_:A2 0.000000
7 s_in[0] u_sm___146_:A2 0.000000
8 s_in[0] u_sm___142_:A2 0.000000
9 s_in[0] u_sm___123_:A0 0.000000
10 s_in[0] u_sm___082_:A1 0.000000
*END

*D_NET s_in\[1\] 15.008427
*CONN
*P s_in\[1\] B
*I u_sm___170_:A2 B
*I u_sm___160_:A2 B
*I u_sm___156_:A2 B
*I u_sm___149_:A0 B
*I u_sm___147_:A2 B
*I u_sm___143_:A2 B
*I u_sm___128_:A0 B
*I u_sm___087_:A1 B
*CAP
1 s_in\[1\]:2 14.770156
2 s_in\[1\]:2 s_in\[2\]:2 0.028065
3 s_in\[1\]:2 s_in\[3\]:2 0.026244
4 s_in\[1\]:2 s_out\[0\]:2 0.002624
5 s_in\[1\]:2 s_out\[1\]:2 0.002624
6 s_in\[1\]:2 s_out\[3\]:2 0.016251
7 s_in\[1\]:2 u_sm___001_:2 0.003620
8 s_in\[1\]:2 u_sm___003_:2 0.003620
9 s_in\[1\]:2 u_sm___005_:2 0.005068
10 s_in\[1\]:2 u_sm___006_:2 0.003620
11 s_in\[1\]:2 u_sm___009_:2 0.005068
12 s_in\[1\]:2 u_sm___016_:2 0.003620
13 s_in\[1\]:2 u_sm___018_:2 0.014149
14 s_in\[1\]:2 u_sm___022_:2 0.007563
15 s_in\[1\]:2 u_sm___023_:2 0.006244
16 s_in\[1\]:2 u_sm___024_:2 0.003620
17 s_in\[1\]:2 u_sm___025_:2 0.003620
18 s_in\[1\]:2 u_sm___026_:2 0.005068
19 s_in\[1\]:2 u_sm___027_:2 0.005068
20 s_in\[1\]:2 u_sm___032_:2 0.003620
21 s_in\[1\]:2 u_sm___033_:2 0.003913
22 s_in\[1\]:2 u_sm___049_:2 0.003038
23 s_in\[1\]:2 u_sm___058_:2 0.005247
24 s_in\[1\]:2 u_sm___059_:2 0.004310
25 s_in\[1\]:2 u_sm___061_:2 0.003038
26 s_in\[1\]:2 w_in\[0\]:2 0.013301
27 s_in\[1\]:2 w_in\[1\]:2 0.025170
28 s_in\[1\]:2 w_in\[2\]:2 0.013484
29 s_in\[1\]:2 w_in\[3\]:2 0.017394
*RES
1 s_in[1] s_in\[1\]:2 382.662400
2 s_in[1] u_sm___170_:A2 0.000000
3 s_in[1] u_sm___160_:A2 0.000000
4 s_in[1] u_sm___156_:A2 0.000000
5 s_in[1] u_sm___149_:A0 0.000000
6 s_in[1] u_sm___147_:A2 0.000000
7 s_in[1] u_sm___143_:A2 0.000000
8 s_in[1] u_sm___128_:A0 0.000000
9 s_in[1] u_sm___087_:A1 0.000000
*END

*D_NET s_in\[2\] 14.621314
*CONN
*P s_in\[2\] B
*I u_sm___171_:A2 B
*I u_sm___166_:A2 B
*I u_sm___157_:A2 B
*I u_sm___153_:A2 B
*I u_sm___144_:A2 B
*I u_sm___133_:A0 B
*I u_sm___092_:A2 B
*I u_sm___069_:A2 B
*CAP
1 s_in\[2\]:2 14.412141
2 s_in\[2\]:2 s_in\[3\]:2 0.029798
3 s_in\[2\]:2 s_out\[1\]:2 0.006244
4 s_in\[2\]:2 s_out\[3\]:2 0.011183
5 s_in\[2\]:2 u_sm___001_:2 0.005068
6 s_in\[2\]:2 u_sm___003_:2 0.002624
7 s_in\[2\]:2 u_sm___022_:2 0.007563
8 s_in\[2\]:2 u_sm___023_:2 0.011449
9 s_in\[2\]:2 u_sm___029_:2 0.003620
10 s_in\[2\]:2 u_sm___030_:2 0.006244
11 s_in\[2\]:2 u_sm___031_:2 0.003620
12 s_in\[2\]:2 u_sm___054_:2 0.009056
13 s_in\[2\]:2 w_in\[0\]:2 0.045456
14 s_in\[2\]:2 w_in\[1\]:2 0.018423
15 s_in\[2\]:2 w_in\[2\]:2 0.038330
16 s_in\[2\]:2 w_in\[3\]:2 0.010495
*RES
1 s_in[2] s_in\[2\]:2 418.609800
2 s_in[2] u_sm___171_:A2 0.000000
3 s_in[2] u_sm___166_:A2 0.000000
4 s_in[2] u_sm___157_:A2 0.000000
5 s_in[2] u_sm___153_:A2 0.000000
6 s_in[2] u_sm___144_:A2 0.000000
7 s_in[2] u_sm___133_:A0 0.000000
8 s_in[2] u_sm___092_:A2 0.000000
9 s_in[2] u_sm___069_:A2 0.000000
*END

*D_NET s_in\[3\] 14.775171
*CONN
*P s_in\[3\] B
*I u_sm___172_:A2 B
*I u_sm___167_:A2 B
*I u_sm___158_:A2 B
*I u_sm___154_:A2 B
*I u_sm___145_:A2 B
*I u_sm___138_:A0 B
*I u_sm___097_:A1 B
*I u_sm___077_:A1 B
*CAP
1 s_in\[3\]:2 14.626231
2 s_in\[3\]:2 s_out\[0\]:2 0.002624
3 s_in\[3\]:2 s_out\[1\]:2 0.002624
4 s_in\[3\]:2 s_out\[3\]:2 0.011183
5 s_in\[3\]:2 u_sm___001_:2 0.002624
6 s_in\[3\]:2 u_sm___003_:2 0.003620
7 s_in\[3\]:2 u_sm___006_:2 0.003137
8 s_in\[3\]:2 u_sm___008_:2 0.002718
9 s_in\[3\]:2 u_sm___009_:2 0.005661
10 s_in\[3\]:2 u_sm___010_:2 0.002624
11 s_in\[3\]:2 u_sm___012_:2 0.002624
12 s_in\[3\]:2 u_sm___023_:2 0.005247
13 s_in\[3\]:2 u_sm___032_:2 0.003620
14 s_in\[3\]:2 w_in\[0\]:2 0.028357
15 s_in\[3\]:2 w_in\[1\]:2 0.019567
16 s_in\[3\]:2 w_in\[2\]:2 0.025665
17 s_in\[3\]:2 w_in\[3\]:2 0.027045
*RES
1 s_in[3] s_in\[3\]:2 399.722100
2 s_in[3] u_sm___172_:A2 0.000000
3 s_in[3] u_sm___167_:A2 0.000000
4 s_in[3] u_sm___158_:A2 0.000000
5 s_in[3] u_sm___154_:A2 0.000000
6 s_in[3] u_sm___145_:A2 0.000000
7 s_in[3] u_sm___138_:A0 0.000000
8 s_in[3] u_sm___097_:A1 0.000000
9 s_in[3] u_sm___077_:A1 0.000000
*END

*D_NET s_out\[0\] 1.532247
*CONN
*P s_out\[0\] B
*I u_sm___106_:X B
*CAP
1 s_out\[0\]:2 1.516278
2 s_out\[0\]:2 s_out\[1\]:2 0.002624
3 s_out\[0\]:2 s_out\[3\]:2 0.003620
4 s_out\[0\]:2 u_sm___028_:2 0.002624
5 s_out\[0\]:2 u_sm___031_:2 0.004477
6 s_out\[0\]:2 w_in\[0\]:2 0.002624
*RES
1 s_out[0] s_out\[0\]:2 111.665900
2 s_out[0] u_sm___106_:X 0.000000
*END

*D_NET s_out\[1\] 2.005490
*CONN
*P s_out\[1\] B
*I u_sm___111_:X B
*CAP
1 s_out\[1\]:2 1.989349
2 s_out\[1\]:2 s_out\[3\]:2 0.003620
3 s_out\[1\]:2 u_sm___029_:2 0.004461
4 s_out\[1\]:2 u_sm___031_:2 0.002624
5 s_out\[1\]:2 u_sm___035_:2 0.005436
*RES
1 s_out[1] s_out\[1\]:2 115.802700
2 s_out[1] u_sm___111_:X 0.000000
*END

*D_NET s_out\[2\] 4.259877
*CONN
*P s_out\[2\] B
*I u_sm___116_:X B
*CAP
1 s_out\[2\]:2 4.256257
2 s_out\[2\]:2 s_out\[3\]:2 0.003620
*RES
1 s_out[2] s_out\[2\]:2 137.692200
2 s_out[2] u_sm___116_:X 0.000000
*END

*D_NET s_out\[3\] 10.410598
*CONN
*P s_out\[3\] B
*I u_sm___121_:X B
*CAP
1 s_out\[3\]:2 10.348075
2 s_out\[3\]:2 u_sm___020_:2 0.003137
3 s_out\[3\]:2 u_sm___022_:2 0.003620
4 s_out\[3\]:2 u_sm___023_:2 0.005068
5 s_out\[3\]:2 u_sm___031_:2 0.003620
6 s_out\[3\]:2 u_sm___065_:2 0.005068
7 s_out\[3\]:2 w_in\[0\]:2 0.018263
8 s_out\[3\]:2 w_in\[1\]:2 0.015125
9 s_out\[3\]:2 w_out\[0\]:2 0.005436
10 s_out\[3\]:2 w_out\[1\]:2 0.003186
*RES
1 s_out[3] s_out\[3\]:2 121.404500
2 s_out[3] u_sm___121_:X 0.000000
*END

*D_NET u_sm___001_ 0.934126
*CONN
*I u_sm___075_:A2 B
*I u_sm___069_:X B
*CAP
1 u_sm___001_:2 0.910721
2 u_sm___001_:2 w_in\[3\]:2 0.023405
*RES
1 u_sm___001_:1 u_sm___001_:2 224.078800
2 u_sm___001_:1 u_sm___075_:A2 0.000000
3 u_sm___001_:1 u_sm___069_:X 0.000000
*END

*D_NET u_sm___003_ 1.955275
*CONN
*I u_sm___074_:A2 B
*I u_sm___071_:Y B
*CAP
1 u_sm___003_:2 1.916460
2 u_sm___003_:2 u_sm___005_:2 0.005247
3 u_sm___003_:2 u_sm___006_:2 0.019825
4 u_sm___003_:2 u_sm___062_:2 0.004461
5 u_sm___003_:2 w_in\[1\]:2 0.003620
6 u_sm___003_:2 w_in\[2\]:2 0.003038
7 u_sm___003_:2 w_in\[3\]:2 0.002624
*RES
1 u_sm___003_:1 u_sm___003_:2 217.774500
2 u_sm___003_:1 u_sm___074_:A2 0.000000
3 u_sm___003_:1 u_sm___071_:Y 0.000000
*END

*D_NET u_sm___005_ 1.356429
*CONN
*I u_sm___074_:B1 B
*I u_sm___073_:Y B
*CAP
1 u_sm___005_:2 1.332299
2 u_sm___005_:2 u_sm___006_:2 0.006104
3 u_sm___005_:2 u_sm___062_:2 0.009013
4 u_sm___005_:2 w_in\[3\]:2 0.009013
*RES
1 u_sm___005_:1 u_sm___005_:2 135.572900
2 u_sm___005_:1 u_sm___074_:B1 0.000000
3 u_sm___005_:1 u_sm___073_:Y 0.000000
*END

*D_NET u_sm___006_ 1.681151
*CONN
*I u_sm___075_:B1 B
*I u_sm___074_:Y B
*CAP
1 u_sm___006_:2 1.668178
2 u_sm___006_:2 u_sm___010_:2 0.009353
3 u_sm___006_:2 u_sm___011_:2 0.003620
*RES
1 u_sm___006_:1 u_sm___006_:2 301.406900
2 u_sm___006_:1 u_sm___075_:B1 0.000000
3 u_sm___006_:1 u_sm___074_:Y 0.000000
*END

*D_NET u_sm___008_ 1.505175
*CONN
*I u_sm___081_:A2 B
*I u_sm___077_:X B
*CAP
1 u_sm___008_:2 1.498443
2 u_sm___008_:2 u_sm___011_:2 0.001485
3 u_sm___008_:2 w_in\[0\]:2 0.005247
*RES
1 u_sm___008_:1 u_sm___008_:2 230.377000
2 u_sm___008_:1 u_sm___081_:A2 0.000000
3 u_sm___008_:1 u_sm___077_:X 0.000000
*END

*D_NET u_sm___009_ 2.033674
*CONN
*I u_sm___080_:A2 B
*I u_sm___078_:Y B
*CAP
1 u_sm___009_:2 2.010518
2 u_sm___009_:2 u_sm___010_:2 0.009558
3 u_sm___009_:2 u_sm___011_:2 0.003620
4 u_sm___009_:2 u_sm___060_:2 0.003357
5 u_sm___009_:2 w_in\[3\]:2 0.006621
*RES
1 u_sm___009_:1 u_sm___009_:2 216.681500
2 u_sm___009_:1 u_sm___080_:A2 0.000000
3 u_sm___009_:1 u_sm___078_:Y 0.000000
*END

*D_NET u_sm___010_ 2.013442
*CONN
*I u_sm___080_:B1 B
*I u_sm___079_:Y B
*CAP
1 u_sm___010_:2 1.998482
2 u_sm___010_:2 u_sm___011_:2 0.003620
3 u_sm___010_:2 u_sm___015_:2 0.007720
4 u_sm___010_:2 w_in\[1\]:2 0.003620
*RES
1 u_sm___010_:1 u_sm___010_:2 142.434800
2 u_sm___010_:1 u_sm___080_:B1 0.000000
3 u_sm___010_:1 u_sm___079_:Y 0.000000
*END

*D_NET u_sm___011_ 2.242026
*CONN
*I u_sm___081_:B1 B
*I u_sm___080_:Y B
*CAP
1 u_sm___011_:2 2.223152
2 u_sm___011_:2 u_sm___060_:2 0.015254
3 u_sm___011_:2 w_in\[1\]:2 0.003620
*RES
1 u_sm___011_:1 u_sm___011_:2 299.047500
2 u_sm___011_:1 u_sm___081_:B1 0.000000
3 u_sm___011_:1 u_sm___080_:Y 0.000000
*END

*D_NET u_sm___012_ 1.671180
*CONN
*I u_sm___086_:A2 B
*I u_sm___082_:X B
*CAP
1 u_sm___012_:2 1.663940
2 u_sm___012_:2 w_in\[0\]:2 0.003620
3 u_sm___012_:2 w_in\[1\]:2 0.003620
*RES
1 u_sm___012_:1 u_sm___012_:2 231.853100
2 u_sm___012_:1 u_sm___086_:A2 0.000000
3 u_sm___012_:1 u_sm___082_:X 0.000000
*END

*D_NET u_sm___013_ 0.636070
*CONN
*I u_sm___085_:A2 B
*I u_sm___083_:Y B
*CAP
1 u_sm___013_:2 0.626469
2 u_sm___013_:2 u_sm___015_:2 0.005981
3 u_sm___013_:2 w_in\[1\]:2 0.003620
*RES
1 u_sm___013_:1 u_sm___013_:2 201.621700
2 u_sm___013_:1 u_sm___085_:A2 0.000000
3 u_sm___013_:1 u_sm___083_:Y 0.000000
*END

*D_NET u_sm___014_ 0.643932
*CONN
*I u_sm___085_:B1 B
*I u_sm___084_:Y B
*CAP
1 u_sm___014_:2 0.640312
2 u_sm___014_:2 w_in\[1\]:2 0.003620
*RES
1 u_sm___014_:1 u_sm___014_:2 127.971300
2 u_sm___014_:1 u_sm___085_:B1 0.000000
3 u_sm___014_:1 u_sm___084_:Y 0.000000
*END

*D_NET u_sm___015_ 1.062252
*CONN
*I u_sm___086_:B1 B
*I u_sm___085_:Y B
*CAP
1 u_sm___015_:2 1.062252
*RES
1 u_sm___015_:1 u_sm___015_:2 295.387800
2 u_sm___015_:1 u_sm___086_:B1 0.000000
3 u_sm___015_:1 u_sm___085_:Y 0.000000
*END

*D_NET u_sm___016_ 1.577344
*CONN
*I u_sm___091_:A2 B
*I u_sm___087_:X B
*CAP
1 u_sm___016_:2 1.531780
2 u_sm___016_:2 u_sm___022_:2 0.009839
3 u_sm___016_:2 w_in\[0\]:2 0.003620
4 u_sm___016_:2 w_in\[1\]:2 0.003620
5 u_sm___016_:2 w_in\[3\]:2 0.028485
*RES
1 u_sm___016_:1 u_sm___016_:2 231.258200
2 u_sm___016_:1 u_sm___091_:A2 0.000000
3 u_sm___016_:1 u_sm___087_:X 0.000000
*END

*D_NET u_sm___017_ 0.766081
*CONN
*I u_sm___090_:A2 B
*I u_sm___088_:Y B
*CAP
1 u_sm___017_:2 0.751801
2 u_sm___017_:2 u_sm___019_:2 0.006075
3 u_sm___017_:2 w_in\[0\]:2 0.003137
4 u_sm___017_:2 w_in\[1\]:2 0.005068
*RES
1 u_sm___017_:1 u_sm___017_:2 204.518300
2 u_sm___017_:1 u_sm___090_:A2 0.000000
3 u_sm___017_:1 u_sm___088_:Y 0.000000
*END

*D_NET u_sm___018_ 0.869788
*CONN
*I u_sm___090_:B1 B
*I u_sm___089_:Y B
*CAP
1 u_sm___018_:2 0.863684
2 u_sm___018_:2 u_sm___019_:2 0.006104
*RES
1 u_sm___018_:1 u_sm___018_:2 130.312600
2 u_sm___018_:1 u_sm___090_:B1 0.000000
3 u_sm___018_:1 u_sm___089_:Y 0.000000
*END

*D_NET u_sm___019_ 0.858619
*CONN
*I u_sm___091_:B1 B
*I u_sm___090_:Y B
*CAP
1 u_sm___019_:2 0.858619
*RES
1 u_sm___019_:1 u_sm___019_:2 293.770800
2 u_sm___019_:1 u_sm___091_:B1 0.000000
3 u_sm___019_:1 u_sm___090_:Y 0.000000
*END

*D_NET u_sm___020_ 0.833953
*CONN
*I u_sm___096_:A2 B
*I u_sm___092_:X B
*CAP
1 u_sm___020_:2 0.833953
*RES
1 u_sm___020_:1 u_sm___020_:2 223.107900
2 u_sm___020_:1 u_sm___096_:A2 0.000000
3 u_sm___020_:1 u_sm___092_:X 0.000000
*END

*D_NET u_sm___021_ 0.971630
*CONN
*I u_sm___095_:A2 B
*I u_sm___093_:Y B
*CAP
1 u_sm___021_:2 0.964529
2 u_sm___021_:2 u_sm___027_:2 0.004477
3 u_sm___021_:2 w_in\[2\]:2 0.002624
*RES
1 u_sm___021_:1 u_sm___021_:2 206.991900
2 u_sm___021_:1 u_sm___095_:A2 0.000000
3 u_sm___021_:1 u_sm___093_:Y 0.000000
*END

*D_NET u_sm___022_ 2.076181
*CONN
*I u_sm___095_:B1 B
*I u_sm___094_:Y B
*CAP
1 u_sm___022_:2 2.038898
2 u_sm___022_:2 u_sm___023_:2 0.021330
3 u_sm___022_:2 w_in\[0\]:2 0.007563
4 u_sm___022_:2 w_in\[1\]:2 0.007563
5 u_sm___022_:2 w_in\[3\]:2 0.000827
*RES
1 u_sm___022_:1 u_sm___022_:2 133.599000
2 u_sm___022_:1 u_sm___095_:B1 0.000000
3 u_sm___022_:1 u_sm___094_:Y 0.000000
*END

*D_NET u_sm___023_ 2.707297
*CONN
*I u_sm___096_:B1 B
*I u_sm___095_:Y B
*CAP
1 u_sm___023_:2 2.691437
2 u_sm___023_:2 w_in\[0\]:2 0.003620
3 u_sm___023_:2 w_in\[1\]:2 0.007930
4 u_sm___023_:2 w_in\[3\]:2 0.004310
*RES
1 u_sm___023_:1 u_sm___023_:2 311.730700
2 u_sm___023_:1 u_sm___096_:B1 0.000000
3 u_sm___023_:1 u_sm___095_:Y 0.000000
*END

*D_NET u_sm___024_ 1.540871
*CONN
*I u_sm___101_:A2 B
*I u_sm___097_:X B
*CAP
1 u_sm___024_:2 1.528214
2 u_sm___024_:2 u_sm___027_:2 0.002233
3 u_sm___024_:2 w_in\[0\]:2 0.003620
4 u_sm___024_:2 w_in\[1\]:2 0.006804
*RES
1 u_sm___024_:1 u_sm___024_:2 228.132800
2 u_sm___024_:1 u_sm___101_:A2 0.000000
3 u_sm___024_:1 u_sm___097_:X 0.000000
*END

*D_NET u_sm___025_ 0.951497
*CONN
*I u_sm___100_:A2 B
*I u_sm___098_:Y B
*CAP
1 u_sm___025_:2 0.933745
2 u_sm___025_:2 u_sm___026_:2 0.002624
3 u_sm___025_:2 u_sm___027_:2 0.011991
4 u_sm___025_:2 w_in\[0\]:2 0.003137
*RES
1 u_sm___025_:1 u_sm___025_:2 206.565500
2 u_sm___025_:1 u_sm___100_:A2 0.000000
3 u_sm___025_:1 u_sm___098_:Y 0.000000
*END

*D_NET u_sm___026_ 0.908491
*CONN
*I u_sm___100_:B1 B
*I u_sm___099_:Y B
*CAP
1 u_sm___026_:2 0.895164
2 u_sm___026_:2 u_sm___027_:2 0.006087
3 u_sm___026_:2 w_in\[0\]:2 0.003620
4 u_sm___026_:2 w_in\[1\]:2 0.003620
*RES
1 u_sm___026_:1 u_sm___026_:2 130.876800
2 u_sm___026_:1 u_sm___100_:B1 0.000000
3 u_sm___026_:1 u_sm___099_:Y 0.000000
*END

*D_NET u_sm___027_ 2.009306
*CONN
*I u_sm___101_:B1 B
*I u_sm___100_:Y B
*CAP
1 u_sm___027_:2 2.002066
2 u_sm___027_:2 w_in\[0\]:2 0.003620
3 u_sm___027_:2 w_in\[1\]:2 0.003620
*RES
1 u_sm___027_:1 u_sm___027_:2 302.215900
2 u_sm___027_:1 u_sm___101_:B1 0.000000
3 u_sm___027_:1 u_sm___100_:Y 0.000000
*END

*D_NET u_sm___028_ 0.967378
*CONN
*I u_sm___106_:A2 B
*I u_sm___102_:X B
*CAP
1 u_sm___028_:2 0.965145
2 u_sm___028_:2 u_sm___031_:2 0.002233
*RES
1 u_sm___028_:1 u_sm___028_:2 224.461500
2 u_sm___028_:1 u_sm___106_:A2 0.000000
3 u_sm___028_:1 u_sm___102_:X 0.000000
*END

*D_NET u_sm___029_ 1.280146
*CONN
*I u_sm___105_:A2 B
*I u_sm___103_:Y B
*CAP
1 u_sm___029_:2 1.266330
2 u_sm___029_:2 u_sm___031_:2 0.008154
3 u_sm___029_:2 u_sm___035_:2 0.002624
4 u_sm___029_:2 w_in\[0\]:2 0.003038
*RES
1 u_sm___029_:1 u_sm___029_:2 210.422500
2 u_sm___029_:1 u_sm___105_:A2 0.000000
3 u_sm___029_:1 u_sm___103_:Y 0.000000
*END

*D_NET u_sm___030_ 2.243400
*CONN
*I u_sm___105_:B1 B
*I u_sm___104_:Y B
*CAP
1 u_sm___030_:2 2.217859
2 u_sm___030_:2 u_sm___031_:2 0.014429
3 u_sm___030_:2 u_sm___034_:2 0.011112
*RES
1 u_sm___030_:1 u_sm___030_:2 144.964200
2 u_sm___030_:1 u_sm___105_:B1 0.000000
3 u_sm___030_:1 u_sm___104_:Y 0.000000
*END

*D_NET u_sm___031_ 1.605811
*CONN
*I u_sm___106_:B1 B
*I u_sm___105_:Y B
*CAP
1 u_sm___031_:2 1.601501
2 u_sm___031_:2 w_in\[0\]:2 0.004310
*RES
1 u_sm___031_:1 u_sm___031_:2 301.402500
2 u_sm___031_:1 u_sm___106_:B1 0.000000
3 u_sm___031_:1 u_sm___105_:Y 0.000000
*END

*D_NET u_sm___032_ 1.772248
*CONN
*I u_sm___111_:A2 B
*I u_sm___107_:X B
*CAP
1 u_sm___032_:2 1.768031
2 u_sm___032_:2 w_in\[0\]:2 0.004217
*RES
1 u_sm___032_:1 u_sm___032_:2 230.351200
2 u_sm___032_:1 u_sm___111_:A2 0.000000
3 u_sm___032_:1 u_sm___107_:X 0.000000
*END

*D_NET u_sm___033_ 0.751426
*CONN
*I u_sm___110_:A2 B
*I u_sm___108_:Y B
*CAP
1 u_sm___033_:2 0.738355
2 u_sm___033_:2 u_sm___035_:2 0.006413
3 u_sm___033_:2 w_in\[0\]:2 0.003620
4 u_sm___033_:2 w_in\[1\]:2 0.003038
*RES
1 u_sm___033_:1 u_sm___033_:2 204.467600
2 u_sm___033_:1 u_sm___110_:A2 0.000000
3 u_sm___033_:1 u_sm___108_:Y 0.000000
*END

*D_NET u_sm___034_ 0.822346
*CONN
*I u_sm___110_:B1 B
*I u_sm___109_:Y B
*CAP
1 u_sm___034_:2 0.819209
2 u_sm___034_:2 w_in\[0\]:2 0.003137
*RES
1 u_sm___034_:1 u_sm___034_:2 129.966200
2 u_sm___034_:1 u_sm___110_:B1 0.000000
3 u_sm___034_:1 u_sm___109_:Y 0.000000
*END

*D_NET u_sm___035_ 1.308362
*CONN
*I u_sm___111_:B1 B
*I u_sm___110_:Y B
*CAP
1 u_sm___035_:2 1.308362
*RES
1 u_sm___035_:1 u_sm___035_:2 297.959900
2 u_sm___035_:1 u_sm___111_:B1 0.000000
3 u_sm___035_:1 u_sm___110_:Y 0.000000
*END

*D_NET u_sm___036_ 1.072207
*CONN
*I u_sm___116_:A2 B
*I u_sm___112_:X B
*CAP
1 u_sm___036_:2 1.065012
2 u_sm___036_:2 u_sm___039_:2 0.007195
*RES
1 u_sm___036_:1 u_sm___036_:2 225.776500
2 u_sm___036_:1 u_sm___116_:A2 0.000000
3 u_sm___036_:1 u_sm___112_:X 0.000000
*END

*D_NET u_sm___037_ 1.441731
*CONN
*I u_sm___115_:A2 B
*I u_sm___113_:Y B
*CAP
1 u_sm___037_:2 1.439107
2 u_sm___037_:2 u_sm___039_:2 0.002624
*RES
1 u_sm___037_:1 u_sm___037_:2 210.725000
2 u_sm___037_:1 u_sm___115_:A2 0.000000
3 u_sm___037_:1 u_sm___113_:Y 0.000000
*END

*D_NET u_sm___038_ 2.468734
*CONN
*I u_sm___115_:B1 B
*I u_sm___114_:Y B
*CAP
1 u_sm___038_:2 2.466110
2 u_sm___038_:2 u_sm___039_:2 0.002624
*RES
1 u_sm___038_:1 u_sm___038_:2 146.766200
2 u_sm___038_:1 u_sm___115_:B1 0.000000
3 u_sm___038_:1 u_sm___114_:Y 0.000000
*END

*D_NET u_sm___039_ 2.430496
*CONN
*I u_sm___116_:B1 B
*I u_sm___115_:Y B
*CAP
1 u_sm___039_:2 2.430496
*RES
1 u_sm___039_:1 u_sm___039_:2 309.673900
2 u_sm___039_:1 u_sm___116_:B1 0.000000
3 u_sm___039_:1 u_sm___115_:Y 0.000000
*END

*D_NET u_sm___040_ 0.635088
*CONN
*I u_sm___121_:A2 B
*I u_sm___117_:X B
*CAP
1 u_sm___040_:2 0.635088
*RES
1 u_sm___040_:1 u_sm___040_:2 220.823600
2 u_sm___040_:1 u_sm___121_:A2 0.000000
3 u_sm___040_:1 u_sm___117_:X 0.000000
*END

*D_NET u_sm___041_ 0.805222
*CONN
*I u_sm___120_:A2 B
*I u_sm___118_:Y B
*CAP
1 u_sm___041_:2 0.792207
2 u_sm___041_:2 u_sm___043_:2 0.003357
3 u_sm___041_:2 u_sm___045_:2 0.003997
4 u_sm___041_:2 w_in\[3\]:2 0.005661
*RES
1 u_sm___041_:1 u_sm___041_:2 204.029400
2 u_sm___041_:1 u_sm___120_:A2 0.000000
3 u_sm___041_:1 u_sm___118_:Y 0.000000
*END

*D_NET u_sm___042_ 0.619621
*CONN
*I u_sm___120_:B1 B
*I u_sm___119_:Y B
*CAP
1 u_sm___042_:2 0.619621
*RES
1 u_sm___042_:1 u_sm___042_:2 127.667600
2 u_sm___042_:1 u_sm___120_:B1 0.000000
3 u_sm___042_:1 u_sm___119_:Y 0.000000
*END

*D_NET u_sm___043_ 1.771717
*CONN
*I u_sm___121_:B1 B
*I u_sm___120_:Y B
*CAP
1 u_sm___043_:2 1.762159
2 u_sm___043_:2 w_in\[3\]:2 0.009558
*RES
1 u_sm___043_:1 u_sm___043_:2 302.945600
2 u_sm___043_:1 u_sm___121_:B1 0.000000
3 u_sm___043_:1 u_sm___120_:Y 0.000000
*END

*D_NET u_sm___044_ 1.360521
*CONN
*I u_sm___126_:A2 B
*I u_sm___122_:X B
*CAP
1 u_sm___044_:2 1.339063
2 u_sm___044_:2 u_sm___051_:2 0.016210
3 u_sm___044_:2 w_out\[0\]:2 0.002624
4 u_sm___044_:2 w_out\[1\]:2 0.002624
*RES
1 u_sm___044_:1 u_sm___044_:2 228.832800
2 u_sm___044_:1 u_sm___126_:A2 0.000000
3 u_sm___044_:1 u_sm___122_:X 0.000000
*END

*D_NET u_sm___045_ 1.399167
*CONN
*I u_sm___125_:A2 B
*I u_sm___123_:Y B
*CAP
1 u_sm___045_:2 1.385561
2 u_sm___045_:2 u_sm___046_:2 0.004819
3 u_sm___045_:2 w_in\[3\]:2 0.004310
4 u_sm___045_:2 w_out\[0\]:2 0.004477
*RES
1 u_sm___045_:1 u_sm___045_:2 209.959400
2 u_sm___045_:1 u_sm___125_:A2 0.000000
3 u_sm___045_:1 u_sm___123_:Y 0.000000
*END

*D_NET u_sm___046_ 0.686932
*CONN
*I u_sm___125_:B1 B
*I u_sm___124_:Y B
*CAP
1 u_sm___046_:2 0.675295
2 u_sm___046_:2 u_sm___047_:2 0.009013
3 u_sm___046_:2 w_in\[3\]:2 0.002624
*RES
1 u_sm___046_:1 u_sm___046_:2 128.958200
2 u_sm___046_:1 u_sm___125_:B1 0.000000
3 u_sm___046_:1 u_sm___124_:Y 0.000000
*END

*D_NET u_sm___047_ 1.164808
*CONN
*I u_sm___126_:B1 B
*I u_sm___125_:Y B
*CAP
1 u_sm___047_:2 1.156748
2 u_sm___047_:2 w_in\[3\]:2 0.002624
3 u_sm___047_:2 w_out\[0\]:2 0.005436
*RES
1 u_sm___047_:1 u_sm___047_:2 296.605000
2 u_sm___047_:1 u_sm___126_:B1 0.000000
3 u_sm___047_:1 u_sm___125_:Y 0.000000
*END

*D_NET u_sm___048_ 0.832566
*CONN
*I u_sm___131_:A2 B
*I u_sm___127_:X B
*CAP
1 u_sm___048_:2 0.827050
2 u_sm___048_:2 u_sm___055_:2 0.005516
*RES
1 u_sm___048_:1 u_sm___048_:2 222.956100
2 u_sm___048_:1 u_sm___131_:A2 0.000000
3 u_sm___048_:1 u_sm___127_:X 0.000000
*END

*D_NET u_sm___049_ 0.852019
*CONN
*I u_sm___130_:A2 B
*I u_sm___128_:Y B
*CAP
1 u_sm___049_:2 0.833407
2 u_sm___049_:2 u_sm___051_:2 0.015988
3 u_sm___049_:2 w_in\[3\]:2 0.002624
*RES
1 u_sm___049_:1 u_sm___049_:2 205.386100
2 u_sm___049_:1 u_sm___130_:A2 0.000000
3 u_sm___049_:1 u_sm___128_:Y 0.000000
*END

*D_NET u_sm___050_ 0.787614
*CONN
*I u_sm___130_:B1 B
*I u_sm___129_:Y B
*CAP
1 u_sm___050_:2 0.749502
2 u_sm___050_:2 u_sm___051_:2 0.005276
3 u_sm___050_:2 w_in\[3\]:2 0.032836
*RES
1 u_sm___050_:1 u_sm___050_:2 129.780500
2 u_sm___050_:1 u_sm___130_:B1 0.000000
3 u_sm___050_:1 u_sm___129_:Y 0.000000
*END

*D_NET u_sm___051_ 1.113687
*CONN
*I u_sm___131_:B1 B
*I u_sm___130_:Y B
*CAP
1 u_sm___051_:2 1.109210
2 u_sm___051_:2 w_out\[1\]:2 0.004477
*RES
1 u_sm___051_:1 u_sm___051_:2 296.514100
2 u_sm___051_:1 u_sm___131_:B1 0.000000
3 u_sm___051_:1 u_sm___130_:Y 0.000000
*END

*D_NET u_sm___052_ 1.477487
*CONN
*I u_sm___136_:A2 B
*I u_sm___132_:X B
*CAP
1 u_sm___052_:2 1.453468
2 u_sm___052_:2 u_sm___053_:2 0.002624
3 u_sm___052_:2 u_sm___054_:2 0.002624
4 u_sm___052_:2 u_sm___055_:2 0.003437
5 u_sm___052_:2 w_in\[0\]:2 0.005342
6 u_sm___052_:2 w_in\[1\]:2 0.006555
7 u_sm___052_:2 w_out\[3\]:2 0.003437
*RES
1 u_sm___052_:1 u_sm___052_:2 229.888000
2 u_sm___052_:1 u_sm___136_:A2 0.000000
3 u_sm___052_:1 u_sm___132_:X 0.000000
*END

*D_NET u_sm___053_ 1.762177
*CONN
*I u_sm___135_:A2 B
*I u_sm___133_:Y B
*CAP
1 u_sm___053_:2 1.748324
2 u_sm___053_:2 u_sm___054_:2 0.002624
3 u_sm___053_:2 u_sm___055_:2 0.005981
4 u_sm___053_:2 w_out\[2\]:2 0.002624
5 u_sm___053_:2 w_out\[3\]:2 0.002624
*RES
1 u_sm___053_:1 u_sm___053_:2 215.887400
2 u_sm___053_:1 u_sm___135_:A2 0.000000
3 u_sm___053_:1 u_sm___133_:Y 0.000000
*END

*D_NET u_sm___054_ 2.502953
*CONN
*I u_sm___135_:B1 B
*I u_sm___134_:Y B
*CAP
1 u_sm___054_:2 2.492458
2 u_sm___054_:2 u_sm___055_:2 0.005247
3 u_sm___054_:2 w_out\[2\]:2 0.002624
4 u_sm___054_:2 w_out\[3\]:2 0.002624
*RES
1 u_sm___054_:1 u_sm___054_:2 148.453800
2 u_sm___054_:1 u_sm___135_:B1 0.000000
3 u_sm___054_:1 u_sm___134_:Y 0.000000
*END

*D_NET u_sm___055_ 2.309477
*CONN
*I u_sm___136_:B1 B
*I u_sm___135_:Y B
*CAP
1 u_sm___055_:2 2.302696
2 u_sm___055_:2 w_out\[1\]:2 0.004157
3 u_sm___055_:2 w_out\[2\]:2 0.002624
*RES
1 u_sm___055_:1 u_sm___055_:2 309.052100
2 u_sm___055_:1 u_sm___136_:B1 0.000000
3 u_sm___055_:1 u_sm___135_:Y 0.000000
*END

*D_NET u_sm___056_ 1.212746
*CONN
*I u_sm___141_:A2 B
*I u_sm___137_:X B
*CAP
1 u_sm___056_:2 1.199693
2 u_sm___056_:2 w_out\[3\]:2 0.013053
*RES
1 u_sm___056_:1 u_sm___056_:2 226.956800
2 u_sm___056_:1 u_sm___141_:A2 0.000000
3 u_sm___056_:1 u_sm___137_:X 0.000000
*END

*D_NET u_sm___057_ 0.600139
*CONN
*I u_sm___140_:A2 B
*I u_sm___138_:Y B
*CAP
1 u_sm___057_:2 0.600139
*RES
1 u_sm___057_:1 u_sm___057_:2 202.842400
2 u_sm___057_:1 u_sm___140_:A2 0.000000
3 u_sm___057_:1 u_sm___138_:Y 0.000000
*END

*D_NET u_sm___058_ 1.099364
*CONN
*I u_sm___140_:B1 B
*I u_sm___139_:Y B
*CAP
1 u_sm___058_:2 1.084898
2 u_sm___058_:2 u_sm___059_:2 0.014466
*RES
1 u_sm___058_:1 u_sm___058_:2 132.615700
2 u_sm___058_:1 u_sm___140_:B1 0.000000
3 u_sm___058_:1 u_sm___139_:Y 0.000000
*END

*D_NET u_sm___059_ 1.052631
*CONN
*I u_sm___141_:B1 B
*I u_sm___140_:Y B
*CAP
1 u_sm___059_:2 1.048154
2 u_sm___059_:2 w_out\[3\]:2 0.004477
*RES
1 u_sm___059_:1 u_sm___059_:2 295.772700
2 u_sm___059_:1 u_sm___141_:B1 0.000000
3 u_sm___059_:1 u_sm___140_:Y 0.000000
*END

*D_NET u_sm___060_ 1.097514
*CONN
*I u_sm___152_:A2 B
*I u_sm___148_:X B
*CAP
1 u_sm___060_:2 1.097514
*RES
1 u_sm___060_:1 u_sm___060_:2 225.910300
2 u_sm___060_:1 u_sm___152_:A2 0.000000
3 u_sm___060_:1 u_sm___148_:X 0.000000
*END

*D_NET u_sm___061_ 1.582327
*CONN
*I u_sm___151_:A2 B
*I u_sm___149_:Y B
*CAP
1 u_sm___061_:2 1.544504
2 u_sm___061_:2 u_sm___062_:2 0.009839
3 u_sm___061_:2 u_sm___063_:2 0.011774
4 u_sm___061_:2 u_sm___064_:2 0.016210
*RES
1 u_sm___061_:1 u_sm___061_:2 213.653000
2 u_sm___061_:1 u_sm___151_:A2 0.000000
3 u_sm___061_:1 u_sm___149_:Y 0.000000
*END

*D_NET u_sm___062_ 0.840702
*CONN
*I u_sm___151_:B1 B
*I u_sm___150_:Y B
*CAP
1 u_sm___062_:2 0.816620
2 u_sm___062_:2 u_sm___063_:2 0.024082
*RES
1 u_sm___062_:1 u_sm___062_:2 129.818400
2 u_sm___062_:1 u_sm___151_:B1 0.000000
3 u_sm___062_:1 u_sm___150_:Y 0.000000
*END

*D_NET u_sm___063_ 2.164439
*CONN
*I u_sm___152_:B1 B
*I u_sm___151_:Y B
*CAP
1 u_sm___063_:2 2.158195
2 u_sm___063_:2 u_sm___066_:2 0.006244
*RES
1 u_sm___063_:1 u_sm___063_:2 299.212000
2 u_sm___063_:1 u_sm___152_:B1 0.000000
3 u_sm___063_:1 u_sm___151_:Y 0.000000
*END

*D_NET u_sm___064_ 0.924067
*CONN
*I u_sm___165_:A2 B
*I u_sm___161_:X B
*CAP
1 u_sm___064_:2 0.924067
*RES
1 u_sm___064_:1 u_sm___064_:2 224.083800
2 u_sm___064_:1 u_sm___165_:A2 0.000000
3 u_sm___064_:1 u_sm___161_:X 0.000000
*END

*D_NET u_sm___065_ 2.236540
*CONN
*I u_sm___164_:A2 B
*I u_sm___162_:Y B
*CAP
1 u_sm___065_:2 2.195768
2 u_sm___065_:2 u_sm___066_:2 0.008893
3 u_sm___065_:2 u_sm___067_:2 0.029255
4 u_sm___065_:2 w_in\[0\]:2 0.002624
*RES
1 u_sm___065_:1 u_sm___065_:2 219.843400
2 u_sm___065_:1 u_sm___164_:A2 0.000000
3 u_sm___065_:1 u_sm___162_:Y 0.000000
*END

*D_NET u_sm___066_ 1.136953
*CONN
*I u_sm___164_:B1 B
*I u_sm___163_:Y B
*CAP
1 u_sm___066_:2 1.124422
2 u_sm___066_:2 u_sm___067_:2 0.012531
*RES
1 u_sm___066_:1 u_sm___066_:2 133.348800
2 u_sm___066_:1 u_sm___164_:B1 0.000000
3 u_sm___066_:1 u_sm___163_:Y 0.000000
*END

*D_NET u_sm___067_ 2.553251
*CONN
*I u_sm___165_:B1 B
*I u_sm___164_:Y B
*CAP
1 u_sm___067_:2 2.553251
*RES
1 u_sm___067_:1 u_sm___067_:2 304.111700
2 u_sm___067_:1 u_sm___165_:B1 0.000000
3 u_sm___067_:1 u_sm___164_:Y 0.000000
*END

*D_NET w_in\[0\] 19.155725
*CONN
*P w_in\[0\] B
*I u_sm___169_:A3 B
*I u_sm___168_:A3 B
*I u_sm___162_:A0 B
*I u_sm___159_:A3 B
*I u_sm___155_:A3 B
*I u_sm___146_:A3 B
*I u_sm___142_:A3 B
*I u_sm___103_:A0 B
*I u_sm___083_:A0 B
*CAP
1 w_in\[0\]:2 19.092988
2 w_in\[0\]:2 w_in\[1\]:2 0.038374
3 w_in\[0\]:2 w_in\[2\]:2 0.016492
4 w_in\[0\]:2 w_in\[3\]:2 0.007871
*RES
1 w_in[0] w_in\[0\]:2 461.076100
2 w_in[0] u_sm___169_:A3 0.000000
3 w_in[0] u_sm___168_:A3 0.000000
4 w_in[0] u_sm___162_:A0 0.000000
5 w_in[0] u_sm___159_:A3 0.000000
6 w_in[0] u_sm___155_:A3 0.000000
7 w_in[0] u_sm___146_:A3 0.000000
8 w_in[0] u_sm___142_:A3 0.000000
9 w_in[0] u_sm___103_:A0 0.000000
10 w_in[0] u_sm___083_:A0 0.000000
*END

*D_NET w_in\[1\] 16.386442
*CONN
*P w_in\[1\] B
*I u_sm___170_:A3 B
*I u_sm___160_:A3 B
*I u_sm___156_:A3 B
*I u_sm___148_:A1 B
*I u_sm___147_:A3 B
*I u_sm___143_:A3 B
*I u_sm___108_:A0 B
*I u_sm___088_:A0 B
*CAP
1 w_in\[1\]:2 16.372326
2 w_in\[1\]:2 w_in\[2\]:2 0.006244
3 w_in\[1\]:2 w_in\[3\]:2 0.002624
4 w_in\[1\]:2 w_out\[0\]:2 0.002624
5 w_in\[1\]:2 w_out\[3\]:2 0.002624
*RES
1 w_in[1] w_in\[1\]:2 353.807700
2 w_in[1] u_sm___170_:A3 0.000000
3 w_in[1] u_sm___160_:A3 0.000000
4 w_in[1] u_sm___156_:A3 0.000000
5 w_in[1] u_sm___148_:A1 0.000000
6 w_in[1] u_sm___147_:A3 0.000000
7 w_in[1] u_sm___143_:A3 0.000000
8 w_in[1] u_sm___108_:A0 0.000000
9 w_in[1] u_sm___088_:A0 0.000000
*END

*D_NET w_in\[2\] 14.467247
*CONN
*P w_in\[2\] B
*I u_sm___171_:A3 B
*I u_sm___166_:A3 B
*I u_sm___157_:A3 B
*I u_sm___153_:A3 B
*I u_sm___144_:A3 B
*I u_sm___113_:A0 B
*I u_sm___093_:A0 B
*I u_sm___071_:A0 B
*CAP
1 w_in\[2\]:2 14.440950
2 w_in\[2\]:2 w_in\[3\]:2 0.018425
3 w_in\[2\]:2 w_out\[0\]:2 0.002624
4 w_in\[2\]:2 w_out\[1\]:2 0.002624
5 w_in\[2\]:2 w_out\[3\]:2 0.002624
*RES
1 w_in[2] w_in\[2\]:2 388.958900
2 w_in[2] u_sm___171_:A3 0.000000
3 w_in[2] u_sm___166_:A3 0.000000
4 w_in[2] u_sm___157_:A3 0.000000
5 w_in[2] u_sm___153_:A3 0.000000
6 w_in[2] u_sm___144_:A3 0.000000
7 w_in[2] u_sm___113_:A0 0.000000
8 w_in[2] u_sm___093_:A0 0.000000
9 w_in[2] u_sm___071_:A0 0.000000
*END

*D_NET w_in\[3\] 16.110000
*CONN
*P w_in\[3\] B
*I u_sm___172_:A3 B
*I u_sm___167_:A3 B
*I u_sm___158_:A3 B
*I u_sm___154_:A3 B
*I u_sm___145_:A3 B
*I u_sm___118_:A0 B
*I u_sm___098_:A0 B
*I u_sm___078_:A0 B
*CAP
1 w_in\[3\]:2 16.102128
2 w_in\[3\]:2 w_out\[1\]:2 0.002624
3 w_in\[3\]:2 w_out\[2\]:2 0.002624
4 w_in\[3\]:2 w_out\[3\]:2 0.002624
*RES
1 w_in[3] w_in\[3\]:2 425.655100
2 w_in[3] u_sm___172_:A3 0.000000
3 w_in[3] u_sm___167_:A3 0.000000
4 w_in[3] u_sm___158_:A3 0.000000
5 w_in[3] u_sm___154_:A3 0.000000
6 w_in[3] u_sm___145_:A3 0.000000
7 w_in[3] u_sm___118_:A0 0.000000
8 w_in[3] u_sm___098_:A0 0.000000
9 w_in[3] u_sm___078_:A0 0.000000
*END

*D_NET w_out\[0\] 3.723097
*CONN
*P w_out\[0\] B
*I u_sm___126_:X B
*CAP
1 w_out\[0\]:2 3.715225
2 w_out\[0\]:2 w_out\[1\]:2 0.002624
3 w_out\[0\]:2 w_out\[2\]:2 0.002624
4 w_out\[0\]:2 w_out\[3\]:2 0.002624
*RES
1 w_out[0] w_out\[0\]:2 134.939500
2 w_out[0] u_sm___126_:X 0.000000
*END

*D_NET w_out\[1\] 3.653328
*CONN
*P w_out\[1\] B
*I u_sm___131_:X B
*CAP
1 w_out\[1\]:2 3.650704
2 w_out\[1\]:2 w_out\[2\]:2 0.002624
*RES
1 w_out[1] w_out\[1\]:2 133.706000
2 w_out[1] u_sm___131_:X 0.000000
*END

*D_NET w_out\[2\] 3.826790
*CONN
*P w_out\[2\] B
*I u_sm___136_:X B
*CAP
1 w_out\[2\]:2 3.822313
2 w_out\[2\]:2 w_out\[3\]:2 0.004477
*RES
1 w_out[2] w_out\[2\]:2 136.940200
2 w_out[2] u_sm___136_:X 0.000000
*END

*D_NET w_out\[3\] 4.492317
*CONN
*P w_out\[3\] B
*I u_sm___141_:X B
*CAP
1 w_out\[3\]:2 4.492317
*RES
1 w_out[3] w_out\[3\]:2 144.208200
2 w_out[3] u_sm___141_:X 0.000000
*END

